   142
  Step:           25 Total energy:    2380.7058568619891      Temperature:   0.61599999999999933     
O       -6.3787812     -4.3240555    -10.2349440
C       -6.5545004     -4.5831449    -11.6307045
X       -5.9317372     -3.4785034    -12.4696670
X       -5.3253357     -1.2404526    -12.1198201
X       -4.4406738     -0.2697191     -9.8510778
X       -3.7339234      2.0598357    -10.1093988
P       -2.4296673     -4.9560658    -12.8158084
O       -1.3771499     -3.8060267    -13.1546079
C       -0.7465602     -3.6570341    -14.4438801
X        0.3078715     -2.5642732    -14.3598506
X        0.5387809     -0.5132995    -13.2581194
X       -0.4084888      0.0549208    -10.8771182
X        0.9167659      1.8593585     -9.8865992
P        3.0404660     -4.8435699    -12.9709209
O        3.5403114     -4.3744655    -11.5200729
C        4.3986387     -3.2567636    -11.2654057
X        4.8927107     -3.2952932     -9.8223411
X        4.3120333     -4.4640575     -7.8736703
X        3.2910400     -6.8632985     -8.0703484
X        3.3279165     -8.0582679     -5.9401711
P        8.3400854     -4.8695906    -10.4171142
O        9.2154384     -4.7149275     -9.1223133
C       10.3343704     -5.5394648     -8.7898428
X       11.0371999     -4.9802490     -7.5717837
X       11.0214847     -2.9937785     -6.3718027
X        8.9246706     -1.4253389     -6.2971615
X        9.0917303      0.2344360     -4.5127003
P        9.2252171     -6.9811559     -4.8644334
O        9.3626525     -6.2136642     -3.4680330
C       10.6399138     -5.9746763     -2.8984986
X       10.4434752     -5.4118934     -1.5137486
X        8.6993375     -4.2457488     -0.4696098
X        5.7204462     -4.2894338     -1.2372901
P       10.5452035     -8.7608414      0.3148461
O       10.4752323     -8.6574007      1.9005039
C        9.3391675     -9.1882791      2.5729791
X        9.7525177     -9.8373186      3.8650488
X       11.7731444    -10.6122637      4.7535270
X       14.0740725     -9.6200854      3.9474242
X       15.9096028     -9.9889984      5.5203409
P        9.0330901     -6.9316445      6.1920365
O        8.7697136     -7.3334661      7.7147829
C        8.2945695     -8.6567439      8.0824596
X        7.6556086     -8.6414129      9.4678374
X        7.8756455     -7.3368534     11.3938866
X        8.6708017     -4.8429408     11.4994961
X        8.2879414     -3.8542840     13.7342187
P        4.1390597     -7.7602219      8.3349663
O        3.3710081     -6.9507837      9.4728920
C        2.7555527     -7.5776453     10.6052411
X        1.9461562     -6.6242059     11.5018147
X        1.7339569     -4.3064649     11.8826062
X        2.4121068     -1.8408137     10.2869484
P       -1.4514752     -7.3679222      9.9595460
O       -2.3519517     -6.0496417     10.0937446
C       -3.4035430     -5.9954230     11.0550553
X       -3.9779866     -4.5975312     11.1418790
X       -3.4415616     -2.5148447     10.2101490
X       -1.8431783     -1.5616648      7.7652148
P       -6.8795953     -5.2817162      8.8339753
O       -7.6113226     -3.9691514      8.3601547
C       -8.8569608     -3.5413049      8.9086057
X       -9.5110524     -2.4693464      8.0504918
X       -8.7977081     -0.8922979      6.4389383
X       -6.4037710     -0.6352097      4.6201802
P      -11.8147184     -4.7997046      6.0340569
O      -11.9381973     -4.4134041      4.4897267
C      -11.9470947     -3.0483860      4.0192613
X      -11.9067812     -2.8903326      2.5133177
X      -10.9702276     -4.0448701      0.7158018
X      -10.0334506     -6.8886102      0.4061996
P      -15.7252316     -2.3848377      2.0549519
O      -16.0629743     -1.0473478      1.2423650
C      -16.7720491     -1.0825875      0.0122534
X      -16.8229042      0.2624160     -0.6583609
X      -16.8656431      2.4908899      0.0752450
X      -16.2094169      3.7777291      2.7097024
P      -13.5217991     -0.2891581     -2.6250771
O      -13.5537747     -0.0904708     -4.2164698
C      -12.6775873      0.7927300     -4.9523259
X      -12.6562126      0.3801936     -6.4159013
X      -13.0242593     -1.6640823     -7.5317139
X      -14.6016424     -4.0530796     -6.6385348
P      -14.7484359      3.1848372     -7.9539210
O      -14.0498999      3.9446900     -9.1747671
C      -13.4844699      3.2268154    -10.2799805
X      -12.9102060      4.1765530    -11.3166439
X      -13.3937350      6.3873689    -11.9421289
X      -14.8507045      8.6702162    -10.5196799
P       -9.5582050      4.4391211     -9.6149790
O       -8.7564097      5.7990850     -9.9240397
C       -7.4586307      5.6711882    -10.4852701
X       -6.7623649      7.0281427    -10.6287682
X       -7.4874967      9.2495548    -10.9885838
X       -9.9657611     10.0536107    -10.5626621
X      -10.1367320     12.1694243    -10.1562713
P       -5.4360383      7.0625539     -7.0920311
O       -4.9358747      8.4994254     -6.5762823
C       -5.5822927      9.2204140     -5.5129832
X       -5.2749497      8.6212742     -4.1474008
X       -4.3533036      6.6518753     -3.2474523
X       -2.8374508      4.9062578     -4.5004780
X       -1.8882484      3.3997796     -3.2247826
P       -2.6789218     11.0161878     -2.9136977
O       -2.7013550     11.1126615     -1.3079946
C       -1.9280334     12.0316066     -0.5661235
X       -2.1500063     11.9414429      0.9200197
X       -4.0405740     11.9429090      2.3423069
X       -6.9074330     11.0464772      1.8617779
P       -0.4536692      8.8016829      2.0363362
O       -0.6305913      8.3444987      3.5410636
C       -0.6253453      9.2107393      4.6741683
X       -0.7352813      8.4299887      5.9749571
X       -1.2229912      6.2295838      6.5919401
X       -0.5576177      4.6041939      4.6285479
X       -0.9188107      2.5114400      5.1773141
P        2.6787053      9.0103222      7.4916990
O        2.7514624      8.5756302      9.0278972
C        3.1722920      9.4574701     10.0728278
X        3.2992478      8.6678404     11.3602832
X        2.3774074      6.6938884     12.2452058
X        1.5815216      4.7932617     10.6072427
X        2.0925655      2.4862836     11.3104585
P        6.9760839      7.9202241     10.9423642
O        7.3245231      6.4312571     11.3551457
C        8.3175274      5.6461484     10.6899716
X        7.8725327      5.3030560      9.2757362
X        8.3602128      6.0253522      7.1088070
X       10.8246164      7.3776495      6.0697629
P        9.5675086      1.8318664      8.9543175
O        9.8176251      1.3631653      7.4476711
C       11.1160056      1.0473186      6.9176331
X       11.0077610      0.8895109      5.4090712
X       11.4658861      2.2056882      3.5212773
X       13.4574502      4.4246981      3.1819752
P       13.5320143     -1.9368257      4.7729822
O       13.9928914     -1.9018181      3.2510973
C       13.6491777     -2.9582122      2.3530549
X       14.2301696     -2.6848340      0.9811906
X       15.4898980     -0.9642275      0.0106880
X       17.2799782      0.4000393      1.3571925
X       18.9805594      1.3649833     -0.1208312
   142
  Step:           50 Total energy:    2405.7314457911602      Temperature:   0.61600000000000010     
O       -6.3220001     -4.3627939    -10.2120561
C       -6.5609278     -4.5570761    -11.6084977
X       -5.9257070     -3.4640528    -12.4556459
X       -5.2683648     -1.2376258    -12.1281926
X       -4.4537604     -0.2366268     -9.8457270
X       -3.7417114      2.0788797    -10.1391428
P       -2.4413660     -4.9521950    -12.8062889
O       -1.4000019     -3.8109265    -13.1510926
C       -0.7750397     -3.6924712    -14.4348673
X        0.2925157     -2.6170187    -14.3739902
X        0.5365436     -0.5935826    -13.2146947
X       -0.4140564      0.0933173    -10.8618736
X        0.9123142      1.8954397     -9.8582306
P        3.0622292     -4.8373333    -12.9342624
O        3.5128544     -4.3768093    -11.4822066
C        4.4188800     -3.3031646    -11.2770947
X        4.9042150     -3.2804885     -9.8383738
X        4.3353907     -4.4616999     -7.8961959
X        3.2870898     -6.8639996     -8.0700464
X        3.3159729     -8.0905719     -5.9539905
P        8.2912843     -4.8668416    -10.3879802
O        9.2499696     -4.6385550     -9.1089832
C       10.3841924     -5.4752796     -8.8325795
X       11.0671206     -4.9872372     -7.5587207
X       11.0435108     -2.9938886     -6.3381988
X        8.9097785     -1.4348365     -6.3018276
X        9.0946407      0.2320314     -4.4999152
P        9.1908531     -6.9465729     -4.8805930
O        9.3559172     -6.2511613     -3.4635563
C       10.6299217     -6.0157595     -2.8704065
X       10.4487622     -5.3575128     -1.5176153
X        8.6851480     -4.1770237     -0.5504397
X        5.7183421     -4.2684813     -1.2626795
P       10.5327743     -8.7213616      0.3333158
O       10.4625657     -8.6210345      1.9210634
C        9.3469409     -9.2336502      2.5579286
X        9.7550906     -9.8578552      3.8779932
X       11.7838059    -10.5991129      4.7988395
X       14.0709788     -9.6295139      3.9762806
X       15.9013587     -9.9977490      5.5500078
P        9.0473239     -6.9304439      6.2179024
O        8.7942978     -7.3908712      7.7163184
C        8.2872732     -8.6693199      8.0860061
X        7.6607480     -8.6522849      9.4742314
X        7.8836043     -7.3949998     11.4315534
X        8.6445624     -4.8682245     11.4896677
X        8.2933971     -3.8566065     13.6953967
P        4.1165521     -7.7774833      8.2903519
O        3.3179115     -6.9507409      9.4242116
C        2.8885694     -7.5392538     10.6764920
X        1.9683500     -6.6516022     11.5234823
X        1.7791452     -4.3418370     11.8541517
X        2.4217735     -1.8580701     10.2934754
P       -1.4274382     -7.3593385      9.9535189
O       -2.3292781     -6.0552433     10.0538958
C       -3.3619983     -5.9448604     11.0324818
X       -3.9381843     -4.5301490     11.0958976
X       -3.3568119     -2.4136684     10.2544072
X       -1.8348625     -1.5463028      7.7485444
P       -6.8642207     -5.3030291      8.8002859
O       -7.5920691     -3.9368308      8.3696873
C       -8.8610489     -3.5166919      8.9085306
X       -9.4985063     -2.4395383      8.0139381
X       -8.7512925     -0.8980440      6.4179828
X       -6.3809378     -0.6544052      4.6251580
P      -11.8252602     -4.8099882      6.0268286
O      -11.9233441     -4.4543848      4.4690927
C      -11.9862484     -3.0851726      4.0339973
X      -11.9276463     -2.8971961      2.5342939
X      -10.9386895     -4.0455173      0.7399373
X      -10.0678301     -6.9107588      0.3960965
P      -15.6971505     -2.3592612      2.0612585
O      -16.0685503     -1.0260594      1.2648140
C      -16.7577869     -1.0890740      0.0051921
X      -16.8000128      0.2652894     -0.6920024
X      -16.9663464      2.4613823      0.1150518
X      -16.2333695      3.7730713      2.7118737
P      -13.5015549     -0.2950250     -2.6574316
O      -13.6424677     -0.0467903     -4.2351356
C      -12.7139644      0.7432202     -4.9675773
X      -12.6892466      0.3318636     -6.4017280
X      -13.0600015     -1.6729871     -7.5631881
X      -14.6179774     -4.0662497     -6.6391769
P      -14.8039960      3.1773740     -7.9781111
O      -14.0421679      3.8800049     -9.1897103
C      -13.5113470      3.2244912    -10.3370690
X      -12.8823723      4.1800700    -11.2789810
X      -13.3448065      6.3517050    -11.9561939
X      -14.8479566      8.6508753    -10.5278081
P       -9.6408718      4.4482607     -9.5403226
O       -8.8383818      5.7459243    -10.0140797
C       -7.4882297      5.7152932    -10.4723464
X       -6.7943707      7.0507740    -10.6030302
X       -7.5111138      9.2383252    -10.9999148
X       -9.9606864     10.0158833    -10.5584093
X      -10.1085943     12.1797568    -10.2076298
P       -5.3991708      7.0602127     -7.0968903
O       -5.0075740      8.5276828     -6.6957361
C       -5.5659566      9.2029772     -5.5725126
X       -5.2487292      8.5899417     -4.2254898
X       -4.4439228      6.6138687     -3.2611655
X       -2.8722992      4.9201098     -4.4900654
X       -1.8829027      3.4232192     -3.2641118
P       -2.6882800     11.1428277     -2.9772785
O       -2.5861956     10.8886934     -1.3739952
C       -1.9655835     11.9368125     -0.5307395
X       -2.2258694     12.0281584      1.0012215
X       -4.0546673     11.8837871      2.4401342
X       -6.8794957     11.1314815      1.8763740
P       -0.4558763      8.7985944      1.9651365
O       -0.5902699      8.3799449      3.5194647
C       -0.6844251      9.2494179      4.6817646
X       -0.7866018      8.4306267      5.9766857
X       -1.2550345      6.2109868      6.5606203
X       -0.5646826      4.5752507      4.6768954
X       -0.8297066      2.5091154      5.1855462
P        2.7057432      9.0103496      7.4967598
O        2.8211861      8.5916434      9.0330056
C        3.1282238      9.4660377     10.1094217
X        3.2905494      8.6706197     11.4012972
X        2.3544396      6.6994844     12.2572108
X        1.5926210      4.7887013     10.6284700
X        2.0978831      2.4771944     11.2979640
P        6.9620825      7.9247758     10.9720478
O        7.3446566      6.4187561     11.3696123
C        8.3236919      5.6532612     10.6591765
X        7.8269334      5.2829261      9.2668644
X        8.2975118      6.0894151      7.1133107
X       10.8006906      7.3882823      6.0703059
P        9.5191383      1.7915352      8.9997557
O        9.8408603      1.4269567      7.4717064
C       11.1076013      1.0338484      6.9144472
X       10.9761846      0.8700417      5.4026415
X       11.5277949      2.1596485      3.5202732
X       13.4729671      4.4225794      3.1699917
P       13.5156674     -1.9292595      4.7561068
O       13.9635844     -1.9137473      3.2304418
C       13.6162057     -2.9604421      2.3227239
X       14.2260417     -2.6957748      0.9586482
X       15.5335980     -1.0010363      0.0071126
X       17.2816883      0.3958580      1.3701808
X       18.9771814      1.3627481     -0.1113653
   142
  Step:           75 Total energy:    2411.3197867875006      Temperature:   0.61599999999999921     
O       -6.2590942     -4.3768554    -10.1960242
C       -6.5555302     -4.5487432    -11.5850969
X       -5.9247839     -3.4526022    -12.4344514
X       -5.2427469     -1.2328356    -12.1217953
X       -4.4751276     -0.2100233     -9.8359984
X       -3.7408151      2.1129949    -10.1687968
P       -2.4679503     -4.9551284    -12.7917024
O       -1.4141813     -3.8133803    -13.1601352
C       -0.7941482     -3.7258543    -14.4278709
X        0.2776066     -2.6625588    -14.3465750
X        0.5552832     -0.6420213    -13.1641195
X       -0.4115736      0.1294358    -10.8457679
X        0.9090038      1.9324051     -9.8284854
P        3.0853405     -4.8387745    -12.9074638
O        3.5117802     -4.3695358    -11.4507601
C        4.4298628     -3.2928219    -11.2744013
X        4.9025882     -3.2627249     -9.8314189
X        4.3128232     -4.4534598     -7.9019294
X        3.2873172     -6.8637276     -8.0780870
X        3.3055771     -8.1199440     -5.9607494
P        8.2749764     -4.8647308    -10.3424982
O        9.2743065     -4.5944963     -9.1356792
C       10.3721970     -5.4412760     -8.8101063
X       11.1110529     -4.9454674     -7.5568504
X       11.0284484     -2.9394905     -6.3485450
X        8.9121590     -1.4347805     -6.2921812
X        9.0941708      0.2198514     -4.4947675
P        9.1495727     -6.9207500     -4.9170645
O        9.3643790     -6.2932357     -3.4601061
C       10.6579207     -6.0062355     -2.8798356
X       10.4584132     -5.3506246     -1.5079435
X        8.6908201     -4.1235941     -0.5444738
X        5.7137567     -4.2429087     -1.2871940
P       10.5426826     -8.6741843      0.3387032
O       10.3851413     -8.5707175      1.9121198
C        9.3317719     -9.2663184      2.5917610
X        9.7750830     -9.8748857      3.9310149
X       11.8050659    -10.6263501      4.8469700
X       14.0652835     -9.6299599      3.9964343
X       15.8984008    -10.0091528      5.5947770
P        9.0620232     -6.9133603      6.2371923
O        8.8289244     -7.4410565      7.7488116
C        8.3067780     -8.7100275      8.1023277
X        7.6258820     -8.6533563      9.4703152
X        7.9254895     -7.4199960     11.4431125
X        8.6166645     -4.8981925     11.4810215
X        8.2988488     -3.8599586     13.6524225
P        4.0782410     -7.7656604      8.2947734
O        3.2586077     -6.9891086      9.4096972
C        2.9498815     -7.5796207     10.6583676
X        2.1136215     -6.6479006     11.5100900
X        1.7869431     -4.3526324     11.8716482
X        2.4352940     -1.8787090     10.3007034
P       -1.3821321     -7.3452735      9.9353973
O       -2.3402340     -6.0657340     10.0024977
C       -3.2624717     -5.8523593     11.0715902
X       -3.8898636     -4.4732184     11.0669149
X       -3.3179000     -2.3481773     10.2669057
X       -1.8229268     -1.5296164      7.7308976
P       -6.8616555     -5.2851394      8.7699126
O       -7.6074385     -3.9420962      8.3333201
C       -8.8245058     -3.4702384      8.8911983
X       -9.5047412     -2.4674686      7.9831144
X       -8.7435944     -0.8511783      6.4748349
X       -6.3465372     -0.6729512      4.6277120
P      -11.8313633     -4.8278279      6.0100321
O      -11.8728570     -4.4396368      4.4717626
C      -12.0004388     -3.0838332      4.0820572
X      -11.9602209     -2.9099905      2.5649625
X      -10.9508307     -4.0766632      0.7681177
X      -10.1060287     -6.9293828      0.3866956
P      -15.6805408     -2.3365100      2.0767111
O      -16.0279678     -1.0401121      1.2249047
C      -16.7502776     -1.1287753     -0.0082216
X      -16.7498740      0.2438299     -0.6817807
X      -16.9880134      2.4692961      0.0746906
X      -16.2599201      3.7708552      2.7191623
P      -13.4973104     -0.2820884     -2.6847833
O      -13.7513283     -0.0096604     -4.2267409
C      -12.7600902      0.7302358     -4.9522708
X      -12.6871316      0.3260949     -6.4367725
X      -13.1166875     -1.6703232     -7.6093286
X      -14.6356695     -4.0835502     -6.6388218
P      -14.8634180      3.1427133     -7.9807343
O      -14.1378919      3.8396432     -9.2142799
C      -13.5783181      3.1072351    -10.3312304
X      -12.9772350      4.1664404    -11.3236608
X      -13.3036469      6.4154916    -11.9264818
X      -14.8390188      8.6273658    -10.5377347
P       -9.6196465      4.4936876     -9.4525547
O       -8.8596511      5.7411387    -10.0650707
C       -7.5022074      5.6229363    -10.5396611
X       -6.8661434      6.9929028    -10.5938233
X       -7.4814546      9.2236193    -11.0212500
X       -9.9553535     10.0218645    -10.5496542
X      -10.0920361     12.1715957    -10.2604340
P       -5.3563001      7.0469439     -7.0984207
O       -4.9469092      8.5575319     -6.7552959
C       -5.6012310      9.2135549     -5.6497403
X       -5.3081166      8.6417065     -4.2478566
X       -4.5914671      6.5937754     -3.3264261
X       -2.8970033      4.9322772     -4.4964699
X       -1.8696213      3.4418812     -3.3005902
P       -2.7142953     11.2153943     -2.9525176
O       -2.4716910     10.9599339     -1.4234609
C       -1.9364927     11.9636853     -0.5437253
X       -2.2749882     11.9276162      0.9652886
X       -4.0302130     11.9891553      2.5167437
X       -6.8615344     11.2152913      1.8923879
P       -0.4067162      8.7632955      1.9612318
O       -0.5752730      8.4049694      3.5040543
C       -0.6812054      9.2646351      4.6545698
X       -0.8810254      8.5649370      5.9957786
X       -1.2747261      6.3219712      6.5651362
X       -0.5683784      4.5542645      4.6980403
X       -0.7331264      2.4505503      5.2098479
P        2.7420360      9.0309103      7.4889255
O        2.8398209      8.5648487      9.0304569
C        3.0467319      9.4635004     10.1344165
X        3.2320304      8.6816355     11.4516251
X        2.3942325      6.6507979     12.3003994
X        1.6072227      4.7810563     10.6341729
X        2.1069042      2.4900802     11.2955148
P        6.9864403      7.9162821     11.0004615
O        7.3664662      6.4212516     11.3852441
C        8.2774259      5.5816192     10.6689612
X        7.8172937      5.2681898      9.2535076
X        8.2744659      6.0988869      7.1031699
X       10.7739162      7.4023529      6.0730588
P        9.4829858      1.7756653      9.0278434
O        9.8412366      1.5176772      7.4864327
C       11.0623017      1.0006305      6.9275345
X       10.9501689      0.8542363      5.4071010
X       11.5631557      2.1479327      3.5506395
X       13.4920130      4.4199577      3.1585781
P       13.4923266     -1.9016207      4.7579367
O       13.9521356     -1.9418813      3.2215846
C       13.5785148     -2.9611415      2.2841772
X       14.2172383     -2.7137921      0.9217159
X       15.5785342     -1.0383543      0.0033474
X       17.2872348      0.3938670      1.3855845
X       18.9749054      1.3631976     -0.0986002
   142
  Step:          100 Total energy:    2397.7735601955951      Temperature:   0.61599999999999988     
O       -6.2090779     -4.3669966    -10.1812641
C       -6.5490157     -4.5482055    -11.5593275
X       -5.9323944     -3.4571969    -12.4181975
X       -5.2966651     -1.2244706    -12.0960554
X       -4.4899113     -0.1739698     -9.8297547
X       -3.7379359      2.1325104    -10.1927996
P       -2.4940759     -4.9697835    -12.7803542
O       -1.4340115     -3.8467178    -13.1550244
C       -0.7789069     -3.7415586    -14.4091586
X        0.2973123     -2.6702192    -14.2958802
X        0.5615110     -0.6362195    -13.1347348
X       -0.4013841      0.1514440    -10.8289209
X        0.9080965      1.9590459     -9.8073029
P        3.0917376     -4.8568018    -12.8961289
O        3.5525311     -4.3483928    -11.4559976
C        4.4266789     -3.2324052    -11.2404134
X        4.8787236     -3.2489020     -9.7896959
X        4.2562673     -4.4466524     -7.8701563
X        3.2905430     -6.8765530     -8.0809060
X        3.2984177     -8.1351520     -5.9787196
P        8.2911607     -4.8800922    -10.3189221
O        9.3035451     -4.5691516     -9.1183336
C       10.3662825     -5.4393824     -8.7782379
X       11.0879723     -4.9098930     -7.5702356
X       11.1033023     -2.8833459     -6.3674251
X        8.9132982     -1.4279577     -6.2824429
X        9.0903811      0.2072599     -4.4873521
P        9.1302155     -6.8938152     -4.9461079
O        9.3934752     -6.3201982     -3.4786850
C       10.6489628     -5.9496579     -2.8986178
X       10.4283777     -5.3502022     -1.5382509
X        8.6762867     -4.1829029     -0.5320930
X        5.7181395     -4.2182245     -1.3076701
P       10.5596933     -8.6490512      0.3480444
O       10.2947971     -8.5259790      1.9385175
C        9.3092750     -9.2960097      2.6455311
X        9.8002843     -9.8688106      3.9587505
X       11.8041861    -10.6615587      4.8531627
X       14.0779041     -9.6316169      4.0233093
X       15.8846785    -10.0205984      5.6300257
P        9.0706498     -6.9296560      6.2744368
O        8.8649152     -7.4314538      7.7694650
C        8.2782926     -8.6913115      8.0889524
X        7.6123925     -8.6883066      9.4687508
X        7.9079861     -7.4508913     11.4522701
X        8.6026499     -4.9332024     11.4413240
X        8.2981861     -3.8568758     13.6374397
P        4.0614770     -7.7618663      8.2815499
O        3.2445410     -6.9838639      9.3926344
C        2.9780568     -7.5874937     10.6580418
X        2.1091734     -6.6886472     11.5296101
X        1.8857500     -4.3785583     11.9046347
X        2.4504427     -1.9005563     10.3037175
P       -1.3214873     -7.3292698      9.9163803
O       -2.2985478     -6.0550359      9.9759312
C       -3.1742702     -5.8147748     11.0925798
X       -3.8367143     -4.4389061     11.0936492
X       -3.3715908     -2.3098374     10.2170717
X       -1.8042156     -1.5149982      7.7091687
P       -6.8488864     -5.2516528      8.7623610
O       -7.6263368     -3.9642139      8.2460781
C       -8.8385978     -3.5288831      8.8518545
X       -9.4666855     -2.4372409      7.9862605
X       -8.7118608     -0.8433388      6.4388454
X       -6.3181643     -0.6930762      4.6371910
P      -11.8163945     -4.8533196      6.0125216
O      -11.8337770     -4.4118518      4.4704445
C      -11.9853314     -3.0600005      4.0897051
X      -11.9412255     -2.9014096      2.5930060
X      -11.0330996     -4.1206079      0.8098977
X      -10.1419544     -6.9479564      0.3776783
P      -15.6907017     -2.3381251      2.1031133
O      -15.9512112     -1.0663736      1.1722065
C      -16.7077225     -1.1091896     -0.0266687
X      -16.7529098      0.2494610     -0.6534295
X      -16.8426928      2.4386725      0.1010502
X      -16.2926760      3.7628518      2.7184970
P      -13.5360061     -0.2622410     -2.7002422
O      -13.7454637      0.0076379     -4.2799866
C      -12.7703485      0.7578480     -5.0119181
X      -12.7408912      0.3174172     -6.4707534
X      -13.1710035     -1.6701794     -7.5926853
X      -14.6503495     -4.1015027     -6.6424294
P      -14.9118299      3.0812640     -7.9733477
O      -14.2633129      3.8183668     -9.2452041
C      -13.7297206      3.1461172    -10.3816441
X      -12.9676565      4.0693668    -11.3196930
X      -13.2961501      6.3142775    -11.9139375
X      -14.8319835      8.6119063    -10.5413012
P       -9.6265392      4.5377322     -9.4015559
O       -8.8406830      5.7523221    -10.0367362
C       -7.5298301      5.5689518    -10.6050772
X       -6.8420728      6.9079211    -10.6666340
X       -7.5253505      9.1009582    -10.9818944
X       -9.9331255     10.0318763    -10.5510334
X      -10.0912621     12.1723540    -10.3077329
P       -5.3059236      7.0512493     -7.1211063
O       -4.8774461      8.5096390     -6.6383560
C       -5.5622357      9.2918234     -5.6815955
X       -5.4017701      8.6775200     -4.2992333
X       -4.6379120      6.6362260     -3.4346682
X       -2.9340146      4.9544360     -4.5240454
X       -1.8556389      3.4535762     -3.3244186
P       -2.7626081     11.2405194     -2.9516080
O       -2.4722629     11.0782379     -1.3552237
C       -1.9418517     12.0823627     -0.5180772
X       -2.1843867     11.8188050      0.9362315
X       -3.9856487     12.0850002      2.3827182
X       -6.8534031     11.2904651      1.9079671
P       -0.3236558      8.7173670      2.0088166
O       -0.5820951      8.3766106      3.5818118
C       -0.6775844      9.3852304      4.6121318
X       -0.8661405      8.6498086      5.9411653
X       -1.2475755      6.4008501      6.4606575
X       -0.5766123      4.5470352      4.7271817
X       -0.6433252      2.3858273      5.2449078
P        2.7342805      9.0443363      7.4899343
O        2.8140969      8.5562357      9.0099798
C        2.9652301      9.4164748     10.1568828
X        3.1951854      8.6341580     11.4399740
X        2.4486565      6.6051386     12.3318216
X        1.6242469      4.7950101     10.6196457
X        2.1227576      2.4905248     11.3066236
P        7.0122931      7.9115489     11.0158676
O        7.3460330      6.3897402     11.4095876
C        8.2615969      5.5370493     10.6873236
X        7.7906700      5.2358893      9.2717472
X        8.2925072      6.0417775      7.1264880
X       10.7492250      7.4159591      6.0746268
P        9.4614181      1.7980050      9.0100206
O        9.8135685      1.5468821      7.4700059
C       11.0150200      0.9555892      6.9573686
X       10.9335486      0.8630121      5.4331424
X       11.5406961      2.1838003      3.5915003
X       13.5125709      4.4121338      3.1477940
P       13.4806031     -1.8949441      4.7523757
O       13.9391936     -1.9573607      3.2201820
C       13.5328849     -2.9459952      2.2652168
X       14.2155026     -2.7248308      0.9186139
X       15.6077143     -1.0718618      0.0101736
X       17.2907188      0.3852300      1.3970890
X       18.9771106      1.3644909     -0.0864886
   142
  Step:          125 Total energy:    2391.6986074432129      Temperature:   0.61600000000000010     
O       -6.1926556     -4.3412805    -10.1569512
C       -6.5382958     -4.5620240    -11.5269812
X       -5.9660479     -3.4538800    -12.3909821
X       -5.3885414     -1.2058266    -12.0545422
X       -4.5051410     -0.1357038     -9.8285893
X       -3.7328778      2.1471541    -10.2129353
P       -2.5109956     -5.0010940    -12.7848485
O       -1.4372379     -3.8700261    -13.1126839
C       -0.7387554     -3.7300037    -14.3629322
X        0.3277305     -2.6480206    -14.2558302
X        0.5664589     -0.5951354    -13.1394519
X       -0.3906558      0.1618364    -10.8054678
X        0.9094541      1.9788761     -9.7945488
P        3.0965477     -4.8697741    -12.8854616
O        3.6131902     -4.3472744    -11.4748582
C        4.4058014     -3.1865748    -11.1809792
X        4.8664522     -3.2285137     -9.7320133
X        4.1997713     -4.4416794     -7.8345816
X        3.2908329     -6.8926003     -8.0910674
X        3.2940381     -8.1426821     -5.9947838
P        8.3074158     -4.8917565    -10.3112687
O        9.2790305     -4.5544279     -9.1045640
C       10.3809043     -5.4210070     -8.7584373
X       11.0805993     -4.8916599     -7.5361386
X       11.1193710     -2.8360516     -6.4407925
X        8.9255644     -1.4313685     -6.2851822
X        9.0823792      0.2087198     -4.4640613
P        9.1386847     -6.8687245     -4.9683680
O        9.3711838     -6.3117979     -3.4987929
C       10.6412378     -5.9169454     -2.9731785
X       10.4291726     -5.3595454     -1.5699465
X        8.6641100     -4.2393546     -0.4912170
X        5.7179811     -4.1943864     -1.3252532
P       10.5656317     -8.6496872      0.4025178
O       10.2503834     -8.4818117      1.9430414
C        9.2815501     -9.2881568      2.6360863
X        9.7915656     -9.8765124      3.9631079
X       11.8230821    -10.6706719      4.8181838
X       14.0951757     -9.6327124      4.0479393
X       15.8712785    -10.0322474      5.6663117
P        9.0785822     -6.9477741      6.3073508
O        8.8701032     -7.4160099      7.8183804
C        8.2231328     -8.6715569      8.0938372
X        7.6042088     -8.7048985      9.4565903
X        7.8403001     -7.4796461     11.4404874
X        8.5916654     -4.9556173     11.4154454
X        8.2964434     -3.8655563     13.6069948
P        4.0693889     -7.7610555      8.2548321
O        3.2819733     -6.9648392      9.4136274
C        2.9030223     -7.6036295     10.6518208
X        2.0869819     -6.7044181     11.5690168
X        1.9703358     -4.3954649     11.9356098
X        2.4664597     -1.9258127     10.3061445
P       -1.2822473     -7.3062670      9.8886167
O       -2.1975946     -6.0099180     10.0075266
C       -3.1235062     -5.7955168     11.0903680
X       -3.8157947     -4.4230266     11.0870152
X       -3.4240784     -2.3219713     10.1288414
X       -1.7839021     -1.5012388      7.6867586
P       -6.8078130     -5.2396034      8.7757444
O       -7.6054558     -3.9854029      8.1783945
C       -8.8255786     -3.5350481      8.8060540
X       -9.4936902     -2.4435205      7.9814670
X       -8.6898180     -0.8640636      6.4367961
X       -6.2897451     -0.7134288      4.6459335
P      -11.7652941     -4.8431110      6.0203602
O      -11.8322936     -4.4145874      4.4982073
C      -11.9350536     -3.0334134      4.1246387
X      -11.9402510     -2.8667030      2.6131925
X      -11.1124422     -4.1183611      0.8009615
X      -10.1725541     -6.9761589      0.3686568
P      -15.6974595     -2.3428367      2.1224207
O      -15.9260868     -1.0672387      1.1853080
C      -16.7375183     -1.1446589      0.0061278
X      -16.7206085      0.2058541     -0.7318603
X      -16.7513551      2.4646576      0.0177918
X      -16.3215294      3.7626189      2.7340690
P      -13.5835100     -0.2314704     -2.7393875
O      -13.6899826      0.0192264     -4.2979024
C      -12.7729916      0.7910593     -5.0532888
X      -12.7790226      0.3465489     -6.5063097
X      -13.1859418     -1.6731784     -7.6204140
X      -14.6696533     -4.1276794     -6.6455959
P      -14.9823656      3.0415023     -7.9853450
O      -14.3484530      3.7704188     -9.2794019
C      -13.7254600      3.0967965    -10.3547423
X      -13.0264670      4.0498756    -11.2623032
X      -13.3322322      6.2738116    -11.8879087
X      -14.8177591      8.5886990    -10.5488588
P       -9.6948543      4.5603149     -9.3729055
O       -8.7920230      5.7419921     -9.9765565
C       -7.5288992      5.5049290    -10.5877393
X       -6.7602512      6.8245823    -10.7416723
X       -7.4829094      9.0553046    -10.9778815
X       -9.9234838     10.0228770    -10.5574401
X      -10.1005763     12.2042766    -10.3509835
P       -5.2658935      7.0354431     -7.1313145
O       -4.7889208      8.4937325     -6.6259070
C       -5.5415822      9.3092796     -5.7071417
X       -5.4423690      8.7513562     -4.2795150
X       -4.6467092      6.6849695     -3.4573975
X       -2.9530875      4.9578126     -4.5619172
X       -1.8687018      3.4951301     -3.3553827
P       -2.8116976     11.2405260     -2.9298717
O       -2.6232188     11.1172171     -1.3607709
C       -1.7485466     11.9778377     -0.5956096
X       -2.0957084     11.9760361      0.9427601
X       -4.0103673     12.0213723      2.3175307
X       -6.8532108     11.3662540      1.9221383
P       -0.2289867      8.6587404      2.0891601
O       -0.5596281      8.4241479      3.5912495
C       -0.6225609      9.4499957      4.5705593
X       -0.7937813      8.6950981      5.8963134
X       -1.2302845      6.4370095      6.4142984
X       -0.5794309      4.4855374      4.7470385
X       -0.5658805      2.3892588      5.2862821
P        2.6865846      9.0624938      7.4852971
O        2.7407561      8.5229255      8.9909585
C        2.9264864      9.3771605     10.1478746
X        3.2333103      8.5686470     11.4000522
X        2.4589165      6.5676816     12.3516456
X        1.6497444      4.7986450     10.5969488
X        2.1374758      2.5010996     11.3192542
P        7.0040785      7.8875477     11.0270428
O        7.3122685      6.3852593     11.4122847
C        8.2378621      5.5436101     10.7213422
X        7.7581572      5.2122982      9.3206352
X        8.3273096      5.9674569      7.1747347
X       10.7239950      7.4291408      6.0763705
P        9.4500998      1.8404748      8.9636572
O        9.7725158      1.5089076      7.4387270
C       11.0015870      0.9504375      6.9600040
X       10.9132742      0.8641611      5.4450509
X       11.4884807      2.2616923      3.6562477
X       13.5323348      4.4014762      3.1387753
P       13.4743409     -1.9140664      4.7454726
O       13.9244772     -1.9326333      3.2137391
C       13.4814724     -2.9150640      2.2718160
X       14.2125182     -2.7303876      0.9512144
X       15.6180977     -1.0997794      0.0245753
X       17.2933447      0.3736550      1.4032008
X       18.9800590      1.3673203     -0.0719842
   142
  Step:          150 Total energy:    2389.7555248721897      Temperature:   0.61600000000000110     
O       -6.2139594     -4.3150018    -10.1130105
C       -6.5438926     -4.5703115    -11.4798136
X       -5.9925907     -3.4562433    -12.3525267
X       -5.4646129     -1.1898747    -12.0294759
X       -4.5315960     -0.1104950     -9.8261999
X       -3.7218186      2.1723315    -10.2340645
P       -2.5145782     -5.0215796    -12.8134662
O       -1.4195621     -3.8813015    -13.0480053
C       -0.7183698     -3.7049444    -14.2949598
X        0.3328754     -2.6108485    -14.2093307
X        0.5748261     -0.5483307    -13.1289595
X       -0.3796680      0.1605358    -10.7826553
X        0.9125121      1.9939699     -9.7885794
P        3.1199713     -4.8600061    -12.8728012
O        3.6746270     -4.3828999    -11.4389410
C        4.3968749     -3.1765898    -11.1488272
X        4.8536006     -3.2270834     -9.6973394
X        4.1822878     -4.4594297     -7.8142674
X        3.2860485     -6.9014837     -8.1158732
X        3.2925462     -8.1511420     -6.0000475
P        8.2896448     -4.8791776    -10.3083363
O        9.2564750     -4.5814848     -9.0939081
C       10.3752787     -5.4370704     -8.7588784
X       11.1234634     -4.8683496     -7.5496540
X       11.1608542     -2.7999252     -6.4458002
X        8.9343551     -1.4160100     -6.2835842
X        9.0697888      0.2051566     -4.4447036
P        9.1474902     -6.8657267     -4.9857263
O        9.3322889     -6.2649503     -3.5170892
C       10.6192351     -5.9296087     -2.9811200
X       10.4301156     -5.3732320     -1.5732348
X        8.6569225     -4.2734901     -0.5123388
X        5.7177258     -4.1732246     -1.3376084
P       10.5721237     -8.6605679      0.4422323
O       10.2399860     -8.4444410      2.0007448
C        9.2468376     -9.2542232      2.6420399
X        9.7522445     -9.8922019      3.9329703
X       11.8124662    -10.6586836      4.7652009
X       14.1080167     -9.6278209      4.0549923
X       15.8701606    -10.0479472      5.7162033
P        9.0903525     -6.9463648      6.3373406
O        8.8417358     -7.4294627      7.8255304
C        8.2315466     -8.7140615      8.1016034
X        7.5476381     -8.6982606      9.4491453
X        7.7778487     -7.4651883     11.4240341
X        8.5783833     -4.9724274     11.4058630
X        8.2936071     -3.8865135     13.5584591
P        4.0790205     -7.7378049      8.2711097
O        3.3412086     -6.9916073      9.4559872
C        2.8255877     -7.6559586     10.5966613
X        2.1251066     -6.7116668     11.5634597
X        1.9549847     -4.3987170     11.9961420
X        2.4842645     -1.9530934     10.3066319
P       -1.2620863     -7.2638777      9.8673369
O       -2.1254533     -5.9181589     10.0590357
C       -3.1151847     -5.7818782     11.0811820
X       -3.8261340     -4.4386557     11.0318258
X       -3.4327350     -2.3407316     10.0788582
X       -1.7610556     -1.4877105      7.6590872
P       -6.7665179     -5.2543152      8.7768960
O       -7.5648298     -3.9967245      8.2211995
C       -8.7892938     -3.5337049      8.7918693
X       -9.4549362     -2.4794711      7.9653321
X       -8.6845380     -0.8455246      6.4584940
X       -6.2629691     -0.7354560      4.6546276
P      -11.7025283     -4.8252683      6.0347767
O      -11.8576884     -4.3967484      4.5093724
C      -11.9140846     -3.0114385      4.1082368
X      -11.9238988     -2.9052473      2.5895547
X      -11.1343093     -4.1821642      0.8109344
X      -10.2050139     -6.9961927      0.3623982
P      -15.6902472     -2.3327041      2.1347603
O      -16.0342370     -1.0667094      1.2099575
C      -16.7350468     -1.1187991     -0.0395981
X      -16.7252079      0.2498033     -0.6915399
X      -16.6981162      2.4560654      0.0704904
X      -16.3506579      3.7508330      2.7268900
P      -13.5606302     -0.2154918     -2.7662372
O      -13.7315025      0.0403369     -4.3498856
C      -12.7642426      0.8154051     -5.0977116
X      -12.7617852      0.3465103     -6.5518993
X      -13.2409603     -1.7103907     -7.5930035
X      -14.6863835     -4.1526024     -6.6521332
P      -15.0858229      3.0311925     -8.0193303
O      -14.4303869      3.7262476     -9.2687001
C      -13.6432418      2.9940007    -10.2355499
X      -13.0423679      4.0255010    -11.2418142
X      -13.3779300      6.2709703    -11.9238369
X      -14.8056781      8.5703978    -10.5528886
P       -9.7689817      4.5746672     -9.3487279
O       -8.7502217      5.6829654     -9.9464598
C       -7.4743096      5.4682184    -10.5220237
X       -6.7731098      6.8234122    -10.6971397
X       -7.4990055      9.0342939    -11.0160789
X       -9.8872507     10.0283461    -10.5674680
X      -10.1104937     12.2083221    -10.3968352
P       -5.2242099      7.0243745     -7.1255813
O       -4.7974050      8.5010557     -6.6953708
C       -5.5113379      9.2803825     -5.7177690
X       -5.3740921      8.7123869     -4.3180034
X       -4.5988081      6.6948557     -3.4200596
X       -2.9826221      4.9857898     -4.6070153
X       -1.8963543      3.5489637     -3.3822535
P       -2.8603343     11.2274991     -2.9079270
O       -2.7836980     11.1868780     -1.2949772
C       -1.6759223     11.7907051     -0.5981322
X       -1.8866620     12.0107993      0.8839192
X       -3.8551744     12.0383484      2.2445545
X       -6.8709131     11.4341005      1.9322668
P       -0.1685677      8.6979493      2.0841282
O       -0.5054301      8.4281918      3.6353042
C       -0.4995561      9.4246846      4.6511744
X       -0.7905839      8.6863121      5.9039020
X       -1.1768212      6.4346368      6.3886740
X       -0.5743840      4.4622526      4.7330217
X       -0.5061207      2.3839542      5.3601381
P        2.6353105      9.0838011      7.4869499
O        2.6429155      8.4876156      8.9702326
C        3.0099074      9.3124377     10.0884126
X        3.2383776      8.5366252     11.3797562
X        2.4494517      6.5424615     12.3305689
X        1.6817788      4.7848467     10.5727253
X        2.1502128      2.5206724     11.3287485
P        6.9651353      7.8757062     11.0172048
O        7.2841497      6.3624361     11.4563031
C        8.2121432      5.5165146     10.7702382
X        7.7637235      5.2233462      9.3437381
X        8.3504884      5.9468016      7.1972271
X       10.6948017      7.4377260      6.0804961
P        9.4556180      1.8633348      8.9256649
O        9.7299624      1.4623228      7.4089650
C       10.9844728      0.9484830      6.9475275
X       10.8977840      0.8770222      5.4373922
X       11.4431014      2.3116448      3.6610391
X       13.5508803      4.3906939      3.1323974
P       13.4580974     -1.9312571      4.7484423
O       13.9081110     -1.8953967      3.2244108
C       13.4472452     -2.8732591      2.2883614
X       14.1983276     -2.7362700      0.9789580
X       15.6213293     -1.1282969      0.0418571
X       17.2958025      0.3609167      1.4057767
X       18.9820141      1.3701509     -0.0552036
   142
  Step:          175 Total energy:    2374.5051099496714      Temperature:   0.61599999999999999     
O       -6.2573521     -4.2955860    -10.0562535
C       -6.5609185     -4.5573994    -11.4280993
X       -5.9910001     -3.4638723    -12.3123764
X       -5.4782570     -1.1938836    -12.0228335
X       -4.5660578     -0.0775679     -9.8291844
X       -3.7137377      2.1900969    -10.2558017
P       -2.5179663     -5.0109465    -12.8515172
O       -1.4019817     -3.8883322    -12.9938731
C       -0.7482672     -3.6642366    -14.2400761
X        0.3362180     -2.5934710    -14.1497522
X        0.5936704     -0.5082586    -13.1008377
X       -0.3701557      0.1583902    -10.7609919
X        0.9133686      2.0061792     -9.7908431
P        3.1665217     -4.8283706    -12.8503756
O        3.6948411     -4.4172137    -11.4200477
C        4.3911933     -3.2130341    -11.1415981
X        4.8457640     -3.2352545     -9.6906927
X        4.2092892     -4.4805159     -7.8120762
X        3.2756569     -6.9120421     -8.1340954
X        3.2921027     -8.1496492     -6.0167067
P        8.2468915     -4.8482358    -10.3109038
O        9.2550368     -4.6253209     -9.0658250
C       10.4019284     -5.4105140     -8.7811718
X       11.1403347     -4.8472221     -7.5914941
X       11.1433678     -2.8164348     -6.4421210
X        8.9501027     -1.3886982     -6.2809451
X        9.0530835      0.1997249     -4.4332159
P        9.1581363     -6.8649557     -4.9924919
O        9.3309828     -6.2051643     -3.5582538
C       10.5958143     -6.0029810     -2.9373025
X       10.4100497     -5.4065701     -1.5633284
X        8.6746548     -4.2351147     -0.5372125
X        5.7128893     -4.1532585     -1.3484098
P       10.5801533     -8.6535640      0.4746643
O       10.2381456     -8.4548095      2.0133825
C        9.2151962     -9.1920043      2.6617290
X        9.7036129     -9.8676139      3.9178838
X       11.7829693    -10.6386396      4.7007761
X       14.1296895     -9.6190839      4.0609604
X       15.8584033    -10.0597670      5.7552739
P        9.1064454     -6.9428273      6.3426504
O        8.7957858     -7.4735279      7.8117377
C        8.2386105     -8.7523063      8.0951973
X        7.5446617     -8.7284088      9.4554218
X        7.7091834     -7.4591749     11.4250922
X        8.5718290     -4.9913454     11.3659631
X        8.2830289     -3.8934501     13.5354123
P        4.0955849     -7.7103754      8.2885444
O        3.3349906     -6.9374646      9.4715491
C        2.8749075     -7.6615187     10.6245133
X        2.0864397     -6.7458390     11.5531546
X        1.9778949     -4.4398072     11.9392402
X        2.4987520     -1.9845335     10.3078134
P       -1.2499661     -7.1719109      9.8689252
O       -2.1142669     -5.8632310     10.0689639
C       -3.1531882     -5.7919102     11.0331526
X       -3.8338028     -4.4273501     11.0135439
X       -3.3950483     -2.3363501     10.0490942
X       -1.7380955     -1.4727334      7.6260272
P       -6.7437506     -5.3053426      8.7571714
O       -7.4981115     -3.9755338      8.2835055
C       -8.7510124     -3.5603339      8.8389226
X       -9.3544733     -2.4597521      7.9725968
X       -8.6295393     -0.8339731      6.4416238
X       -6.2446647     -0.7544966      4.6638815
P      -11.6593368     -4.8181327      6.0292848
O      -11.8799632     -4.3651814      4.5166473
C      -11.9027662     -3.0168823      4.0760954
X      -11.9557978     -2.9096637      2.5645611
X      -11.1158093     -4.1593147      0.7547523
X      -10.2361830     -7.0216768      0.3539958
P      -15.7087038     -2.3213025      2.1340512
O      -16.1040883     -1.0624875      1.2418278
C      -16.7563225     -1.1094186     -0.0287867
X      -16.6940001      0.2433784     -0.7034870
X      -16.7788463      2.4884031      0.0025587
X      -16.3731595      3.7470206      2.7288179
P      -13.5109281     -0.2013554     -2.8164888
O      -13.7617097      0.1042581     -4.3503442
C      -12.7837286      0.8016259     -5.1285420
X      -12.7767403      0.3433739     -6.5614694
X      -13.2517994     -1.7179225     -7.6112905
X      -14.7060798     -4.1806024     -6.6598891
P      -15.1922505      3.0050630     -8.0358978
O      -14.4932014      3.7575955     -9.2877530
C      -13.6221533      3.0762567    -10.2297513
X      -12.9680812      3.9681647    -11.2402462
X      -13.4602134      6.1385276    -11.9270262
X      -14.7969415      8.5607589    -10.5563230
P       -9.7822102      4.5780593     -9.3169382
O       -8.8223834      5.6577030     -9.9668998
C       -7.4753643      5.4693204    -10.4262311
X       -6.7933668      6.8281205    -10.5705865
X       -7.4748743      9.0242560    -11.0758028
X       -9.8621171     10.0511821    -10.5816273
X      -10.1130149     12.1905514    -10.4440698
P       -5.1918915      7.0159951     -7.1317135
O       -4.8250582      8.5197937     -6.7857015
C       -5.5001153      9.2519627     -5.7527906
X       -5.2972113      8.6570093     -4.3639062
X       -4.5821235      6.6639395     -3.3455959
X       -3.0051052      5.0265636     -4.6623534
X       -1.9258792      3.6013426     -3.4079655
P       -2.9042362     11.2110025     -2.8568402
O       -2.8463843     11.3073527     -1.2615779
C       -1.6251898     11.6992655     -0.5957895
X       -1.9318333     11.8242634      0.8540092
X       -3.9110530     12.0911143      1.9932220
X       -6.8354549     11.5052471      1.9424729
P       -0.1409140      8.7901054      2.0683406
O       -0.4094662      8.4421288      3.5883409
C       -0.4665431      9.3972024      4.6647658
X       -0.7883828      8.6485098      5.9632372
X       -1.1832987      6.3589454      6.4244708
X       -0.5589272      4.4625737      4.6900348
X       -0.4649039      2.3812215      5.4493561
P        2.5859519      9.0890922      7.5003038
O        2.6119321      8.4751019      8.9717806
C        3.0750166      9.2808046     10.0370006
X        3.2321156      8.5586124     11.3622741
X        2.4248949      6.5772444     12.3040281
X        1.7062844      4.7783226     10.5323610
X        2.1660561      2.5190304     11.3392241
P        6.9252976      7.8394208     11.0007224
O        7.2782830      6.3710584     11.4846000
C        8.1988865      5.5253980     10.7977478
X        7.7674027      5.2079628      9.3651169
X        8.2877311      5.9970976      7.2103530
X       10.6712185      7.4487276      6.0801538
P        9.4743439      1.8510562      8.9171017
O        9.7020434      1.4589836      7.3933600
C       10.9507657      0.9553094      6.9069610
X       10.8817838      0.9020819      5.3938883
X       11.4557857      2.3015589      3.6004916
X       13.5640459      4.3829383      3.1268516
P       13.4203629     -1.9149837      4.7652827
O       13.8987920     -1.8894831      3.2456732
C       13.4242994     -2.8469542      2.2981542
X       14.1781714     -2.7234126      0.9876176
X       15.6358827     -1.1506883      0.0374069
X       17.2942623      0.3496952      1.4064955
X       18.9833457      1.3758271     -0.0431620
   142
  Step:          200 Total energy:    2382.8033793135946      Temperature:   0.61599999999999933     
O       -6.3076171     -4.2795656     -9.9885114
C       -6.5590202     -4.5575473    -11.3690982
X       -5.9788623     -3.4673194    -12.2607988
X       -5.4261653     -1.1981444    -12.0319418
X       -4.6027669     -0.0340371     -9.8300428
X       -3.7056737      2.1935166    -10.2739348
P       -2.5338013     -4.9951820    -12.8734279
O       -1.3890116     -3.8767808    -12.9556031
C       -0.7554383     -3.6209563    -14.1956807
X        0.3451409     -2.5837651    -14.0881218
X        0.6394172     -0.5005508    -13.0525266
X       -0.3603812      0.1547388    -10.7304500
X        0.9171945      2.0172973     -9.7904179
P        3.2146203     -4.8117212    -12.8572059
O        3.6840932     -4.4252585    -11.3770683
C        4.3999621     -3.2184430    -11.1197349
X        4.8524597     -3.2473981     -9.6782798
X        4.2466376     -4.5139934     -7.8154931
X        3.2676095     -6.9236223     -8.1423043
X        3.2951700     -8.1472678     -6.0356621
P        8.2357549     -4.8209848    -10.2956812
O        9.2089316     -4.6477321     -9.0570683
C       10.4166026     -5.3619253     -8.8825789
X       11.1357382     -4.8805848     -7.6105180
X       11.1225870     -2.8495983     -6.4170562
X        8.9673095     -1.3637822     -6.2884969
X        9.0388754      0.2022320     -4.4055870
P        9.1890244     -6.8587123     -5.0059296
O        9.3389917     -6.1596948     -3.5761836
C       10.6005577     -6.1005027     -2.8904777
X       10.3864710     -5.4455777     -1.5261827
X        8.6725093     -4.1573095     -0.5670691
X        5.7114165     -4.1357915     -1.3514784
P       10.5951812     -8.6521338      0.4887445
O       10.2494493     -8.4520858      2.0317529
C        9.1523238     -9.1264697      2.6723957
X        9.6927808     -9.8210257      3.9243427
X       11.7948529    -10.5907552      4.6388030
X       14.1536320     -9.6141861      4.0767662
X       15.8342112    -10.0725567      5.7903979
P        9.1276614     -6.9582127      6.3376642
O        8.7599916     -7.4958615      7.8166089
C        8.2335960     -8.7728277      8.1146250
X        7.5640239     -8.8061146      9.4779476
X        7.6909831     -7.4807940     11.4005804
X        8.5693041     -5.0077307     11.3267220
X        8.2721836     -3.9002909     13.5168064
P        4.1066460     -7.6605595      8.3163671
O        3.3248910     -6.9272537      9.4762205
C        2.9354560     -7.6542944     10.6355460
X        2.1252488     -6.7930728     11.5769052
X        1.9325886     -4.4874059     11.9266362
X        2.5187347     -2.0170085     10.3090830
P       -1.2417979     -7.0873640      9.8630777
O       -2.1603318     -5.7953453     10.0461232
C       -3.2092345     -5.7804861     11.0167567
X       -3.8403376     -4.4042212     11.0302003
X       -3.3149902     -2.3346959     10.0521949
X       -1.7099850     -1.4598814      7.5929347
P       -6.7251141     -5.3531881      8.7374661
O       -7.4243644     -4.0001956      8.2933813
C       -8.6298804     -3.5185821      8.8969880
X       -9.3399472     -2.4615732      8.0375858
X       -8.6110467     -0.8459119      6.4974616
X       -6.2126431     -0.7745751      4.6673821
P      -11.6238765     -4.8114925      6.0215885
O      -11.8747148     -4.3499397      4.5023254
C      -11.9098086     -3.0067226      4.0385998
X      -11.9589616     -2.8984163      2.5145578
X      -11.1018949     -4.1759771      0.7135375
X      -10.2691248     -7.0409732      0.3510488
P      -15.7642862     -2.3350199      2.1442719
O      -16.0732906     -1.0275894      1.2687931
C      -16.7237583     -1.0960233     -0.0203584
X      -16.6812103      0.2682720     -0.7192407
X      -16.8657785      2.4885404      0.0258702
X      -16.3930208      3.7378676      2.7238009
P      -13.4710765     -0.1957493     -2.8364678
O      -13.7531677      0.1697887     -4.3652045
C      -12.7769742      0.8334404     -5.1639136
X      -12.8613879      0.3221045     -6.5760945
X      -13.2624785     -1.7481920     -7.6138544
X      -14.7209403     -4.2053084     -6.6674258
P      -15.2503503      2.9801253     -8.0832484
O      -14.5239957      3.7253798     -9.2958878
C      -13.6245602      3.0450521    -10.1627004
X      -13.0303828      3.9653272    -11.1959445
X      -13.4834767      6.1290029    -11.9394182
X      -14.7814928      8.5420004    -10.5601149
P       -9.7511380      4.5584786     -9.2632149
O       -8.9400111      5.7181484    -10.0024277
C       -7.5245094      5.5101472    -10.2650688
X       -6.8239086      6.8128270    -10.5290655
X       -7.4412707      9.0154541    -11.0310493
X       -9.8376707     10.0273946    -10.6054803
X      -10.1038279     12.2009122    -10.4862314
P       -5.1567667      7.0060175     -7.1389849
O       -4.7875856      8.5205381     -6.8126053
C       -5.4813896      9.2053690     -5.7512972
X       -5.3048638      8.6619000     -4.3315521
X       -4.6140732      6.6428989     -3.3782746
X       -3.0074409      5.0608241     -4.7059679
X       -1.9520716      3.6504440     -3.4423496
P       -2.9203365     11.2311547     -2.8314942
O       -2.8619993     11.3439142     -1.2977028
C       -1.5926770     11.5479246     -0.7106050
X       -1.9910011     11.7399602      0.7664902
X       -3.8881533     12.2095730      2.0842297
X       -6.8120831     11.5716204      1.9498014
P       -0.0755741      8.8433639      2.0556863
O       -0.3266132      8.4746265      3.5861818
C       -0.5822769      9.3632279      4.6788326
X       -0.7958397      8.5383950      5.9361713
X       -1.1989477      6.2836451      6.3911634
X       -0.5356537      4.4260142      4.6806159
X       -0.4306283      2.4331642      5.5287560
P        2.5580142      9.0707632      7.5260162
O        2.6664397      8.4728058      9.0022690
C        3.0666185      9.3648391     10.0479191
X        3.2419914      8.5965322     11.3577518
X        2.3744892      6.6181999     12.2294684
X        1.7321722      4.7699255     10.4955923
X        2.1889225      2.5058342     11.3523425
P        6.9036696      7.8018711     10.9791952
O        7.2899071      6.3331386     11.4951737
C        8.2346395      5.5083362     10.7937179
X        7.7509541      5.2220554      9.3790164
X        8.2426765      6.0867628      7.2582350
X       10.6465995      7.4563015      6.0854815
P        9.5034861      1.8110646      8.9416967
O        9.6982308      1.4900581      7.3888760
C       10.9323665      1.0097779      6.8381915
X       10.8411017      0.8989587      5.3237390
X       11.4985190      2.2406144      3.5149246
X       13.5806224      4.3760020      3.1265044
P       13.3710139     -1.8749841      4.7938282
O       13.9019462     -1.9170803      3.2868480
C       13.4055747     -2.8290424      2.3038971
X       14.1637666     -2.7045212      0.9877915
X       15.6516714     -1.1638367      0.0273564
X       17.2956125      0.3365493      1.4108985
X       18.9862267      1.3793243     -0.0272637
   142
  Step:          225 Total energy:    2387.5884923421527      Temperature:   0.61599999999999977     
O       -6.3521515     -4.2570600     -9.9223694
C       -6.5452778     -4.5467270    -11.3110104
X       -5.9637373     -3.4682684    -12.2186697
X       -5.3930939     -1.2021378    -12.0348007
X       -4.6438399     -0.0034870     -9.8285408
X       -3.6917201      2.2037982    -10.2974811
P       -2.5491496     -4.9816947    -12.8733706
O       -1.4186198     -3.8675774    -12.9423853
C       -0.7259052     -3.6169774    -14.1693488
X        0.3742398     -2.5716066    -14.0643689
X        0.6997364     -0.5133414    -12.9985502
X       -0.3541481      0.1502225    -10.6936745
X        0.9226100      2.0316615     -9.7865606
P        3.2480939     -4.8080963    -12.8716023
O        3.6629228     -4.3997075    -11.4000521
C        4.3905556     -3.2026010    -11.0975972
X        4.8611191     -3.2458170     -9.6526869
X        4.2625148     -4.5333992     -7.7899632
X        3.2610972     -6.9307171     -8.1625306
X        3.2969309     -8.1576983     -6.0429582
P        8.2403728     -4.8077814    -10.3059851
O        9.1796264     -4.6423665     -9.0220962
C       10.4126692     -5.3643204     -8.9114970
X       11.1246411     -4.8632225     -7.6698573
X       11.0767230     -2.9097028     -6.3813603
X        8.9888694     -1.3398071     -6.3013643
X        9.0260509      0.2022117     -4.3782655
P        9.2258776     -6.8539391     -5.0182725
O        9.3571192     -6.1713391     -3.5913845
C       10.5785254     -6.1366703     -2.8452908
X       10.3787775     -5.4532956     -1.5074303
X        8.6644216     -4.1452994     -0.6022462
X        5.7111858     -4.1186305     -1.3529540
P       10.6042210     -8.6712452      0.5053448
O       10.2459733     -8.4121216      2.0258928
C        9.1636160     -9.0742452      2.6783070
X        9.6897093     -9.7962027      3.9025345
X       11.7809184    -10.5667283      4.6344931
X       14.1715313     -9.6018437      4.0748230
X       15.8096271    -10.0919072      5.8338201
P        9.1381620     -6.9826159      6.3648890
O        8.7389999     -7.5051571      7.8142711
C        8.2458412     -8.8212299      8.1053229
X        7.5502397     -8.8377619      9.4734661
X        7.7552034     -7.5148512     11.3981921
X        8.5588378     -5.0150759     11.3131186
X        8.2622814     -3.9205902     13.4686285
P        4.1333174     -7.6115181      8.3120306
O        3.3442267     -6.9400313      9.5225705
C        2.9377327     -7.6904216     10.6580088
X        2.1728543     -6.7829966     11.6027555
X        1.8873474     -4.4778831     11.9727006
X        2.5389173     -2.0569401     10.3092137
P       -1.2492941     -7.0303751      9.8255722
O       -2.1747691     -5.7684766     10.0674545
C       -3.2038752     -5.7418087     11.0555769
X       -3.8372000     -4.3772795     11.0363492
X       -3.2396529     -2.3260666     10.0627289
X       -1.6816214     -1.4516863      7.5594782
P       -6.6930382     -5.3661328      8.7293121
O       -7.4656393     -4.0479557      8.2160409
C       -8.5748998     -3.5093938      8.9220902
X       -9.2609651     -2.4487408      8.1013585
X       -8.5671236     -0.9043511      6.5116350
X       -6.1863982     -0.7956571      4.6714299
P      -11.5974924     -4.7975839      5.9994904
O      -11.8227580     -4.3373475      4.4782367
C      -11.9032983     -2.9825774      4.0073448
X      -11.9652603     -2.9084897      2.4825987
X      -11.1366183     -4.2029459      0.7019210
X      -10.3056614     -7.0561806      0.3486495
P      -15.8081123     -2.3412230      2.1455183
O      -16.0307365     -1.0345180      1.2607919
C      -16.6081329     -1.0821590     -0.0362149
X      -16.6899422      0.2841149     -0.6943516
X      -16.9167890      2.4837648      0.0460100
X      -16.4142060      3.7262407      2.7143393
P      -13.4672193     -0.1838582     -2.8304534
O      -13.7287505      0.1996370     -4.3577861
C      -12.7946604      0.8722195     -5.2060205
X      -12.9171666      0.3191246     -6.6360125
X      -13.3148158     -1.7684390     -7.6046031
X      -14.7355554     -4.2335055     -6.6767626
P      -15.2867193      2.9379944     -8.1205664
O      -14.5630777      3.7006023     -9.2937401
C      -13.6992880      2.9588508    -10.1370490
X      -13.0674238      3.9603196    -11.1438560
X      -13.4605954      6.1481387    -11.9386439
X      -14.7663530      8.5213477    -10.5654549
P       -9.7597573      4.5558195     -9.2494086
O       -8.9942180      5.7490000     -9.9275266
C       -7.6145481      5.5263028    -10.2312357
X       -6.8470545      6.7965669    -10.5104214
X       -7.4005142      9.0368189    -10.9695757
X       -9.8276997     10.0099745    -10.6358811
X      -10.0805197     12.1913941    -10.5301906
P       -5.1100699      7.0064373     -7.1471404
O       -4.7303936      8.4879453     -6.6688996
C       -5.4654227      9.2752417     -5.7411668
X       -5.3897366      8.6815266     -4.3424977
X       -4.6830821      6.6376483     -3.4281386
X       -3.0045797      5.0973406     -4.7521792
X       -1.9649724      3.6784775     -3.4803060
P       -2.9272924     11.2801514     -2.9601411
O       -2.9740736     11.2286795     -1.3369550
C       -1.7585221     11.4699719     -0.6510793
X       -1.9235143     11.8332144      0.7897445
X       -3.8060526     12.2170420      2.1510038
X       -6.7880985     11.6386703      1.9526472
P        0.0345557      8.8462588      2.0645509
O       -0.2771263      8.4740673      3.5953683
C       -0.7164260      9.3228517      4.6455841
X       -0.8772034      8.4965809      5.9011349
X       -1.2475257      6.2450234      6.3952104
X       -0.5082212      4.3836696      4.6586805
X       -0.3978319      2.4641632      5.6077860
P        2.5699757      9.0432639      7.5386611
O        2.7224521      8.5363458      9.0285475
C        3.0409171      9.4463946     10.0894393
X        3.2126472      8.6576981     11.3742268
X        2.3650307      6.6341283     12.1795646
X        1.7536872      4.7354847     10.4644675
X        2.2115584      2.5072285     11.3548409
P        6.9208468      7.7507856     10.9516910
O        7.2863213      6.3070946     11.4818723
C        8.2383511      5.4741187     10.8111579
X        7.7664359      5.2244796      9.3943086
X        8.1968683      6.1401215      7.2803980
X       10.6201544      7.4631255      6.0910925
P        9.5215410      1.7877837      8.9559978
O        9.7103016      1.5170977      7.3899671
C       10.9158160      1.0612073      6.7667368
X       10.7918156      0.9318895      5.2484592
X       11.5334251      2.1878771      3.4088602
X       13.5958997      4.3640319      3.1262301
P       13.3315347     -1.8493848      4.8172710
O       13.9089112     -1.9365906      3.3271012
C       13.3818887     -2.7987370      2.3082376
X       14.1535172     -2.6966769      0.9942266
X       15.6411100     -1.1637353      0.0279184
X       17.2993699      0.3221786      1.4137865
X       18.9866833      1.3792967     -0.0112031
   142
  Step:          250 Total energy:    2398.6698216351597      Temperature:   0.61600000000000044     
O       -6.3721532     -4.2128373     -9.8769435
C       -6.5416116     -4.5357093    -11.2602146
X       -5.9635046     -3.4697733    -12.1822675
X       -5.4367084     -1.1892020    -12.0254077
X       -4.6759032      0.0220461     -9.8260011
X       -3.6740912      2.2133844    -10.3237620
P       -2.5538570     -4.9774710    -12.8534566
O       -1.4357133     -3.8357434    -12.9612146
C       -0.6815308     -3.6399951    -14.1844899
X        0.4084488     -2.5792557    -14.0675853
X        0.7152106     -0.5494700    -12.9511071
X       -0.3413175      0.1473449    -10.6551210
X        0.9288380      2.0488764     -9.7772016
P        3.2554953     -4.7992949    -12.8960402
O        3.6901094     -4.3735574    -11.4181547
C        4.3757462     -3.1628217    -11.0749989
X        4.8391005     -3.2445295     -9.6382012
X        4.2427158     -4.5446033     -7.7854611
X        3.2619814     -6.9353618     -8.1750258
X        3.2963801     -8.1743634     -6.0543704
P        8.2510459     -4.7945339    -10.3233340
O        9.1673561     -4.6403443     -9.0601888
C       10.3936172     -5.3692707     -8.8841714
X       11.1282834     -4.8636052     -7.6799194
X       11.0913455     -2.9237278     -6.3751078
X        9.0031313     -1.3020876     -6.3022742
X        9.0173102      0.1878404     -4.3674966
P        9.2644028     -6.8682071     -5.0363071
O        9.3728147     -6.2040483     -3.5833702
C       10.6071542     -6.1082903     -2.8789808
X       10.4015937     -5.4622756     -1.5359972
X        8.6828690     -4.1785513     -0.5579468
X        5.7060338     -4.1007270     -1.3561047
P       10.6091978     -8.6854300      0.5124624
O       10.2479975     -8.3597855      2.0277326
C        9.1983806     -9.0608380      2.6712432
X        9.7099773     -9.7978151      3.8816912
X       11.7947774    -10.5469763      4.6333387
X       14.1803261     -9.5903832      4.0720010
X       15.7792992    -10.1123881      5.8727899
P        9.1440805     -6.9955441      6.4052700
O        8.7363540     -7.5484811      7.8375617
C        8.2053233     -8.8672442      8.0847262
X        7.5774357     -8.8134408      9.4531156
X        7.8453140     -7.5527428     11.3987541
X        8.5489353     -5.0383570     11.2822370
X        8.2486948     -3.9324232     13.4340521
P        4.1674433     -7.5695568      8.2971215
O        3.3978418     -6.9375599      9.5492832
C        2.9386078     -7.6588191     10.7140963
X        2.0790298     -6.7738849     11.6260026
X        1.9595478     -4.4707223     12.0284934
X        2.5587039     -2.1013726     10.3079445
P       -1.2393185     -7.0152028      9.7771691
O       -2.1405275     -5.7570725     10.1302598
C       -3.1664273     -5.7000153     11.1237224
X       -3.8001475     -4.3207515     11.0372728
X       -3.2218284     -2.2876908     10.0172833
X       -1.6533065     -1.4492787      7.5307736
P       -6.6627885     -5.3472134      8.7123190
O       -7.5192930     -4.1526057      8.1509291
C       -8.5518606     -3.5684107      8.9448766
X       -9.2244891     -2.4682945      8.1047297
X       -8.5322620     -0.8991024      6.4976514
X       -6.1598902     -0.8164526      4.6682417
P      -11.5642758     -4.7574909      5.9791011
O      -11.7230763     -4.3228161      4.4605779
C      -11.8765955     -2.9696601      4.0054539
X      -12.0076172     -2.9188310      2.4983236
X      -11.2209129     -4.1845387      0.6808808
X      -10.3400123     -7.0761054      0.3453073
P      -15.7883708     -2.3441273      2.1436004
O      -16.0325699     -1.0302436      1.2556701
C      -16.5911044     -1.1147264     -0.0455769
X      -16.6327537      0.2417882     -0.7370393
X      -16.9597318      2.4770080     -0.0183779
X      -16.4331841      3.7200662      2.7143290
P      -13.4842083     -0.1411403     -2.8147582
O      -13.7359568      0.1786308     -4.3649543
C      -12.8336807      0.8665690     -5.2130602
X      -12.8933901      0.3259053     -6.6453875
X      -13.3759617     -1.7432467     -7.6441730
X      -14.7526739     -4.2710334     -6.6845778
P      -15.3398710      2.8772415     -8.1135310
O      -14.6132881      3.7104747     -9.3017012
C      -13.7912971      3.0361304    -10.2491833
X      -13.0239170      3.9074042    -11.1850291
X      -13.3977959      6.0794421    -11.8759780
X      -14.7542126      8.5063157    -10.5701223
P       -9.8426410      4.5452364     -9.2480890
O       -8.9408181      5.7709016     -9.7906934
C       -7.6599924      5.5341572    -10.3476760
X       -6.8638185      6.8319879    -10.4618494
X       -7.3990072      9.0636164    -10.9530324
X       -9.8219605     10.0130146    -10.6686435
X      -10.0464001     12.1547529    -10.5755326
P       -5.0542330      7.0083350     -7.1044737
O       -4.6599076      8.4792060     -6.5997524
C       -5.5218974      9.2789997     -5.7813205
X       -5.4785662      8.7302174     -4.3661619
X       -4.7452959      6.6797954     -3.5383369
X       -3.0095056      5.1411415     -4.7881052
X       -1.9664083      3.6902180     -3.5242256
P       -2.9809054     11.2856699     -3.0535757
O       -2.9717008     11.1603685     -1.4585307
C       -1.8392902     11.5648094     -0.6645182
X       -1.9741035     11.8614410      0.8374471
X       -3.8217561     12.2040299      2.2152718
X       -6.7407206     11.7062888      1.9540627
P        0.1458522      8.8439131      2.1017558
O       -0.2380260      8.4173874      3.5791124
C       -0.7730863      9.2887123      4.5981105
X       -0.9891649      8.5110873      5.9187514
X       -1.2658267      6.2317672      6.3137879
X       -0.4911277      4.3786708      4.6378675
X       -0.3595759      2.4373495      5.6868446
P        2.5991679      9.0323072      7.5006064
O        2.6959962      8.6149257      9.0531351
C        3.0370292      9.4971983     10.1411817
X        3.1925657      8.6979500     11.4084748
X        2.4082131      6.6101520     12.1403877
X        1.7681311      4.7119326     10.4375311
X        2.2396705      2.5004665     11.3550293
P        6.9393019      7.7258305     10.9147646
O        7.2651173      6.2674916     11.4962563
C        8.2412177      5.4455633     10.8323475
X        7.7921612      5.1739662      9.4033700
X        8.1877170      6.1184668      7.2872435
X       10.5939894      7.4715781      6.0962617
P        9.5292278      1.8025250      8.9352426
O        9.6935826      1.5200521      7.3641062
C       10.9078196      1.1224109      6.7130432
X       10.7867638      0.9806773      5.1923003
X       11.5166086      2.2007124      3.3271027
X       13.6105385      4.3445316      3.1245402
P       13.3108557     -1.8506392      4.8256741
O       13.9104847     -1.9294313      3.3466244
C       13.3499488     -2.7653424      2.3261002
X       14.1427981     -2.6845800      1.0273695
X       15.6183165     -1.1561768      0.0371216
X       17.3024271      0.3061904      1.4188189
X       18.9887060      1.3779836      0.0006008
   142
  Step:          275 Total energy:    2387.1538310691344      Temperature:   0.61599999999999988     
O       -6.3670144     -4.1539443     -9.8473683
C       -6.5398909     -4.5360539    -11.2140634
X       -5.9989369     -3.4602526    -12.1453357
X       -5.5305764     -1.1659851    -11.9870345
X       -4.6947459      0.0527237     -9.8229048
X       -3.6612361      2.2084694    -10.3428450
P       -2.5327381     -4.9602758    -12.8170596
O       -1.4354126     -3.8211296    -13.0154409
C       -0.6640800     -3.6780125    -14.2098536
X        0.4027553     -2.6051705    -14.0815854
X        0.6803496     -0.5855433    -12.9254024
X       -0.3215398      0.1442661    -10.6113005
X        0.9338285      2.0663717     -9.7580509
P        3.2583391     -4.7803618    -12.9000190
O        3.7439136     -4.3823345    -11.4334056
C        4.3451848     -3.1375291    -11.0783421
X        4.8213160     -3.2230388     -9.6411490
X        4.2023080     -4.5264141     -7.7866439
X        3.2644734     -6.9493568     -8.1674717
X        3.2923135     -8.1926636     -6.0713028
P        8.2397785     -4.7801807    -10.3570588
O        9.2000881     -4.6183315     -9.0826871
C       10.4087523     -5.3868914     -8.8652897
X       11.1196600     -4.8677857     -7.6141600
X       11.1038699     -2.8431333     -6.4205171
X        9.0173960     -1.2819651     -6.3078198
X        9.0125078      0.1766962     -4.3454410
P        9.2897674     -6.9066881     -5.0383930
O        9.4016238     -6.2542975     -3.5953054
C       10.6602340     -6.0339645     -2.9407646
X       10.4116669     -5.4512988     -1.5522089
X        8.6437945     -4.2746216     -0.5734328
X        5.7100039     -4.0856857     -1.3496018
P       10.6157014     -8.6679829      0.5097202
O       10.2577370     -8.3575971      2.0278336
C        9.1951365     -9.0643270      2.6595463
X        9.7358319     -9.7904676      3.8977260
X       11.8356069    -10.5720494      4.6282930
X       14.1917857     -9.5839501      4.0885991
X       15.7377687    -10.1288686      5.8997343
P        9.1494440     -7.0039636      6.4345963
O        8.7908966     -7.5785446      7.8593607
C        8.1759113     -8.8508008      8.0784778
X        7.5789091     -8.8734052      9.4508626
X        7.9120099     -7.6136142     11.4057616
X        8.5459883     -5.0601179     11.2439264
X        8.2312118     -3.9375698     13.4179810
P        4.1876760     -7.5367470      8.3350854
O        3.4164105     -6.9019201      9.5840382
C        2.8664610     -7.6515817     10.6743375
X        2.0859434     -6.7761722     11.6418030
X        1.9546915     -4.4765355     12.1230460
X        2.5797475     -2.1425920     10.3085590
P       -1.2282334     -7.0223311      9.7503249
O       -2.1045614     -5.7370429     10.1491589
C       -3.1043494     -5.6330233     11.1699223
X       -3.7826056     -4.2670211     11.0543408
X       -3.2645525     -2.2371863      9.9794006
X       -1.6240977     -1.4510197      7.5074926
P       -6.6186040     -5.3795461      8.6995857
O       -7.5156045     -4.1853342      8.1423338
C       -8.5898687     -3.5866520      8.8802948
X       -9.2510626     -2.5036275      8.0653270
X       -8.4903407     -0.9026667      6.5291558
X       -6.1361916     -0.8372886      4.6647323
P      -11.5319852     -4.7168681      5.9890323
O      -11.5972868     -4.3007166      4.4471983
C      -11.8901344     -2.9666701      4.0048632
X      -11.9922902     -2.9297301      2.4857610
X      -11.3109533     -4.2658530      0.7059062
X      -10.3767333     -7.0849315      0.3483439
P      -15.7439745     -2.3342870      2.1499643
O      -16.0731579     -1.0500083      1.2550901
C      -16.5955565     -1.1259034     -0.0822256
X      -16.6556511      0.2489664     -0.7263734
X      -16.8765640      2.4180119      0.0693685
X      -16.4570464      3.7058457      2.7008473
P      -13.4842394     -0.0806768     -2.8100838
O      -13.7644619      0.1116034     -4.3862369
C      -12.8300557      0.8142090     -5.2086514
X      -12.8984846      0.3001336     -6.6300021
X      -13.4397030     -1.7563266     -7.6015120
X      -14.7658949     -4.2974185     -6.6920798
P      -15.3737939      2.8476962     -8.1234886
O      -14.6524787      3.6330434     -9.3011020
C      -13.7930840      2.9605752    -10.2505609
X      -13.1087569      3.8976983    -11.2544333
X      -13.2637353      6.1544973    -11.9125546
X      -14.7448858      8.4924020    -10.5695291
P       -9.8996080      4.5389960     -9.2143912
O       -8.9135844      5.7224497     -9.6713600
C       -7.6788524      5.5605367    -10.3550240
X       -6.8802569      6.8763432    -10.4654756
X       -7.3592864      9.1109581    -10.9479962
X       -9.8263206      9.9851177    -10.6999652
X      -10.0181046     12.1545393    -10.6141912
P       -4.9954547      6.9958774     -7.0190115
O       -4.6706999      8.5089197     -6.6452521
C       -5.5893085      9.2852509     -5.8687518
X       -5.5616423      8.7296030     -4.4573378
X       -4.7699004      6.7196223     -3.5562815
X       -3.0162703      5.1733075     -4.8014555
X       -1.9737639      3.7057641     -3.5761233
P       -3.0530184     11.2519031     -3.0723394
O       -2.8599717     11.1767102     -1.4819922
C       -1.7647404     11.8139625     -0.7782578
X       -2.0648944     11.7275859      0.7655004
X       -3.7520501     12.2589158      2.3744457
X       -6.7058699     11.7652154      1.9588023
P        0.2206173      8.8695997      2.1429704
O       -0.2459129      8.3812282      3.6152709
C       -0.7476013      9.3082247      4.5921454
X       -0.9823647      8.5321669      5.8686865
X       -1.3138320      6.2460598      6.2869998
X       -0.4799517      4.3268873      4.6641849
X       -0.3226090      2.4323798      5.7238265
P        2.5898702      9.0304917      7.4700598
O        2.6118550      8.6864991      9.0351045
C        3.0250891      9.5259299     10.1396603
X        3.2431926      8.6833513     11.4085249
X        2.4584581      6.5752647     12.1273602
X        1.7791556      4.7061067     10.4243925
X        2.2712458      2.4813976     11.3580387
P        6.9223822      7.7065590     10.8981040
O        7.2725890      6.2646083     11.4703707
C        8.2227523      5.4082571     10.8522947
X        7.7774843      5.1444437      9.4285732
X        8.2390377      6.0189580      7.3020097
X       10.5661579      7.4803520      6.1070795
P        9.5398456      1.8246914      8.8782349
O        9.6603415      1.5038544      7.3134811
C       10.9175571      1.2020169      6.6906524
X       10.8004499      1.0060050      5.1818853
X       11.4453175      2.2556411      3.3020349
X       13.6252353      4.3216253      3.1255423
P       13.3003677     -1.8610621      4.8320346
O       13.9027123     -1.9102790      3.3625055
C       13.3268091     -2.7393611      2.3546647
X       14.1197227     -2.6690978      1.0612938
X       15.6015047     -1.1523832      0.0619271
X       17.3042324      0.2913214      1.4320938
X       18.9883607      1.3731643      0.0136638
   142
  Step:          300 Total energy:    2408.5452511173403      Temperature:   0.61600000000000021     
O       -6.3451104     -4.0940809     -9.8128742
C       -6.5348064     -4.5207254    -11.1657205
X       -6.0405922     -3.4501129    -12.1225615
X       -5.6350480     -1.1449012    -11.9487014
X       -4.7146978      0.0777501     -9.8142257
X       -3.6460692      2.2065241    -10.3646659
P       -2.5168500     -4.9322332    -12.7692924
O       -1.4284638     -3.7996478    -13.0559443
C       -0.6771362     -3.7137370    -14.2520749
X        0.3745191     -2.6221784    -14.1142720
X        0.6020957     -0.6109572    -12.9088387
X       -0.2973625      0.1380446    -10.5644706
X        0.9386627      2.0874912     -9.7331306
P        3.2726905     -4.7703742    -12.8988970
O        3.7747094     -4.3892657    -11.4451597
C        4.3378791     -3.1286494    -11.0933008
X        4.7983558     -3.2008505     -9.6467087
X        4.1607307     -4.5163642     -7.8247928
X        3.2678464     -6.9504603     -8.1651708
X        3.2857413     -8.2228837     -6.0759862
P        8.2451698     -4.7617779    -10.3706591
O        9.2455125     -4.5966531     -9.1299917
C       10.3772204     -5.3841809     -8.8244437
X       11.1094196     -4.8326526     -7.5994539
X       11.1614263     -2.7678831     -6.4598908
X        9.0205063     -1.2629059     -6.3227407
X        9.0111735      0.1680980     -4.3146259
P        9.3011323     -6.9749972     -5.0283417
O        9.4502579     -6.3130349     -3.5877008
C       10.7065858     -5.9871416     -2.9867141
X       10.4478055     -5.4349595     -1.5907330
X        8.6654691     -4.3200752     -0.5524532
X        5.7038645     -4.0718904     -1.3402504
P       10.6282220     -8.6276546      0.4846806
O       10.2609335     -8.3895461      2.0129735
C        9.2236588     -9.0769360      2.6997640
X        9.7518602     -9.7902124      3.9154509
X       11.8338568    -10.6092815      4.6064045
X       14.1923125     -9.5755571      4.1036715
X       15.7024371    -10.1458169      5.9345108
P        9.1583746     -7.0014739      6.4405776
O        8.8720580     -7.6163356      7.9037790
C        8.1687742     -8.8538558      8.0763075
X        7.5781814     -8.9353978      9.4728077
X        7.9450760     -7.6159074     11.3842327
X        8.5387599     -5.0835081     11.2299551
X        8.2128689     -3.9527486     13.3801318
P        4.1978426     -7.5080188      8.4158370
O        3.4169578     -6.8301763      9.6237013
C        2.8224138     -7.6427070     10.6261489
X        2.1159470     -6.7759054     11.6380554
X        1.9417776     -4.4948285     12.1091911
X        2.5993683     -2.1922604     10.3173164
P       -1.2271097     -7.0070411      9.7795691
O       -2.0973152     -5.7140069     10.0930671
C       -3.0265086     -5.5426476     11.1622171
X       -3.7675705     -4.2188620     11.0331574
X       -3.3043969     -2.2027790      9.9316719
X       -1.5971665     -1.4566239      7.4904640
P       -6.5770320     -5.4296107      8.6915059
O       -7.4409096     -4.1637478      8.1866035
C       -8.6517018     -3.6725541      8.7930818
X       -9.2455071     -2.5095751      8.0453232
X       -8.4636248     -0.8926737      6.5298276
X       -6.1146492     -0.8579200      4.6589442
P      -11.5210496     -4.6913408      5.9872956
O      -11.4753617     -4.2691740      4.4539092
C      -11.8626768     -2.9748517      4.0192767
X      -11.9911219     -2.8844440      2.4890135
X      -11.3576223     -4.2563337      0.6729314
X      -10.4150942     -7.1069990      0.3529494
P      -15.7211777     -2.3191125      2.1583400
O      -16.0896347     -1.0711911      1.2454610
C      -16.6353383     -1.2026540     -0.0739993
X      -16.6963255      0.1622063     -0.7465163
X      -16.8488125      2.4261746     -0.0353663
X      -16.4790495      3.7012535      2.7092388
P      -13.4842743     -0.0114144     -2.8179848
O      -13.7465743      0.0485067     -4.3553692
C      -12.8315605      0.7742164     -5.1813640
X      -12.9568875      0.2655284     -6.6052943
X      -13.4337367     -1.8125490     -7.6134374
X      -14.7842257     -4.3253917     -6.6974142
P      -15.3828289      2.8159299     -8.1316522
O      -14.6833936      3.5825278     -9.3542611
C      -13.8336649      2.9297439    -10.3451280
X      -13.1170710      3.9505989    -11.2592044
X      -13.2834407      6.1941967    -11.9123391
X      -14.7302930      8.4747092    -10.5696689
P       -9.9188195      4.5111091     -9.1475430
O       -8.9829041      5.7277048     -9.6331800
C       -7.6641182      5.5706964    -10.2433427
X       -6.8669707      6.8785248    -10.4244146
X       -7.3457963      9.0951270    -10.9543422
X       -9.8301947      9.9698701    -10.7335880
X      -10.0055794     12.1618257    -10.6611643
P       -4.9651228      6.9832399     -6.9826699
O       -4.7342963      8.5447690     -6.7389722
C       -5.6551747      9.2809285     -5.9254173
X       -5.5974101      8.6995248     -4.5260084
X       -4.7626470      6.7398828     -3.5527132
X       -3.0379678      5.2138974     -4.8061142
X       -1.9828623      3.7202181     -3.6308736
P       -3.0991627     11.2351430     -3.0715997
O       -2.7883588     11.1296595     -1.5031335
C       -1.8725392     11.8853328     -0.7047286
X       -2.0436614     11.7402301      0.7569791
X       -3.7191195     12.1024578      2.2514159
X       -6.6610811     11.8331901      1.9677909
P        0.2589701      8.9113704      2.1739449
O       -0.2592882      8.4537169      3.5711643
C       -0.6430583      9.3293937      4.6040534
X       -0.8921253      8.5187005      5.8243504
X       -1.3237618      6.2640082      6.2367283
X       -0.4864383      4.2838240      4.7205844
X       -0.2830346      2.4118084      5.7438014
P        2.5303334      9.0499548      7.4595915
O        2.5061037      8.7018284      9.0274289
C        3.0607954      9.4906333     10.0843677
X        3.2669684      8.6426143     11.3328186
X        2.5202470      6.5697773     12.1242307
X        1.7972018      4.6937179     10.4361888
X        2.3014229      2.4751419     11.3478445
P        6.9003682      7.7058403     10.8725366
O        7.2597141      6.2689164     11.4876953
C        8.2034520      5.3979943     10.8551927
X        7.7358925      5.0929826      9.4386622
X        8.2693658      5.9059986      7.3034380
X       10.5380152      7.4921186      6.1198231
P        9.5486871      1.8358378      8.8011343
O        9.6589378      1.5030394      7.2556741
C       10.9337255      1.2286591      6.6833688
X       10.7949148      1.0554011      5.1902105
X       11.3918545      2.3213112      3.3167460
X       13.6372324      4.2953013      3.1260472
P       13.2896895     -1.8574957      4.8523706
O       13.8946674     -1.8962341      3.3770239
C       13.3103299     -2.7275689      2.3743426
X       14.0796304     -2.6564060      1.0677104
X       15.5912179     -1.1517207      0.0852315
X       17.3084865      0.2819182      1.4532327
X       18.9814172      1.3637642      0.0277790
   142
  Step:          325 Total energy:    2399.7618983989250      Temperature:   0.61600000000000077     
O       -6.3144118     -4.0508439     -9.7749747
C       -6.5284913     -4.4987204    -11.1164557
X       -6.0545132     -3.4338118    -12.0881994
X       -5.6727390     -1.1249265    -11.9299266
X       -4.7413371      0.0941552     -9.7987949
X       -3.6284318      2.2104815    -10.3860770
P       -2.5267852     -4.8970699    -12.7133113
O       -1.4471428     -3.7705195    -13.0560191
C       -0.6923193     -3.7187605    -14.2681566
X        0.3507983     -2.6143878    -14.1471824
X        0.5419210     -0.6277753    -12.8947145
X       -0.2744459      0.1307164    -10.5154104
X        0.9429205      2.1073603     -9.7074524
P        3.2893478     -4.7771461    -12.9134128
O        3.7558249     -4.3630106    -11.4400291
C        4.3601030     -3.1094241    -11.1146316
X        4.8024695     -3.1934213     -9.6628952
X        4.1547451     -4.4920498     -7.8190754
X        3.2671478     -6.9516319     -8.1628410
X        3.2803596     -8.2527701     -6.0727266
P        8.2632869     -4.7457248    -10.3718787
O        9.2477147     -4.5210508     -9.1295273
C       10.3528140     -5.3398106     -8.8142470
X       11.1003276     -4.8022707     -7.6126019
X       11.1625438     -2.7489862     -6.4985267
X        9.0227934     -1.2304671     -6.3203738
X        9.0131495      0.1483632     -4.2965509
P        9.3247337     -7.0345814     -5.0123144
O        9.4830134     -6.3855573     -3.5578748
C       10.7228576     -5.9893200     -2.9719637
X       10.4729163     -5.3870443     -1.6072168
X        8.6735291     -4.3037359     -0.5869522
X        5.7019093     -4.0608167     -1.3223024
P       10.6406753     -8.6037806      0.4487478
O       10.2914275     -8.3775497      2.0050190
C        9.2327227     -9.0770590      2.6922573
X        9.7561743     -9.8104585      3.9105635
X       11.8317993    -10.6411813      4.6108295
X       14.1811069     -9.5676454      4.1195564
X       15.6800475    -10.1603592      5.9787883
P        9.1657035     -7.0130581      6.4747864
O        8.9224840     -7.6796179      7.8960034
C        8.2055774     -8.8846349      8.0738456
X        7.6063816     -8.9056048      9.4754295
X        7.9081511     -7.6442274     11.4297439
X        8.5344375     -5.1037529     11.2221880
X        8.1928095     -3.9668593     13.3455529
P        4.2145841     -7.4787036      8.4799286
O        3.4561005     -6.7778280      9.6692898
C        2.8904285     -7.6358069     10.6650121
X        2.0406989     -6.8238782     11.6376186
X        1.9415235     -4.5338926     12.1312572
X        2.6195479     -2.2331645     10.3268287
P       -1.2279816     -6.9895694      9.8463236
O       -2.0895032     -5.6695482     10.0464448
C       -2.9878886     -5.5031907     11.1424563
X       -3.7287715     -4.1864950     10.9707170
X       -3.3278100     -2.1488918      9.8889278
X       -1.5732220     -1.4633357      7.4823231
P       -6.5513666     -5.4317489      8.7029962
O       -7.3576705     -4.1662379      8.2118880
C       -8.6057184     -3.7550392      8.7924852
X       -9.2133595     -2.5398962      8.0549267
X       -8.4294264     -0.8982804      6.5439895
X       -6.0989141     -0.8726793      4.6501418
P      -11.5219498     -4.6734622      5.9677311
O      -11.4260555     -4.2329827      4.4265829
C      -11.8056000     -2.9448872      3.9827026
X      -11.9538762     -2.8867815      2.4807145
X      -11.3064917     -4.2530866      0.6804151
X      -10.4577560     -7.1216737      0.3639106
P      -15.7339200     -2.3160434      2.1889153
O      -16.0777122     -1.0727410      1.2235094
C      -16.6915234     -1.1882360     -0.0708164
X      -16.7333222      0.1565547     -0.7461433
X      -16.8552595      2.3440132      0.0471196
X      -16.5006487      3.6880888      2.6994749
P      -13.4801046      0.0425681     -2.7528818
O      -13.7358476      0.0103231     -4.3436745
C      -12.8908519      0.7546463     -5.2295978
X      -12.9791401      0.2215046     -6.6236760
X      -13.4050998     -1.8619709     -7.6390708
X      -14.8042794     -4.3544854     -6.6967237
P      -15.3654264      2.7924304     -8.1576676
O      -14.7122082      3.5824125     -9.4075439
C      -13.8871728      3.0005363    -10.4108333
X      -13.0348940      3.9130375    -11.2332691
X      -13.3211505      6.1114680    -11.9760203
X      -14.7245834      8.4760976    -10.5563691
P       -9.9051937      4.4991209     -9.0836813
O       -9.0540137      5.7408676     -9.6410962
C       -7.6759506      5.5313633    -10.0701976
X       -6.8905451      6.8037656    -10.3108807
X       -7.3965876      8.9937141    -10.9731118
X       -9.8229075      9.9976890    -10.7618915
X      -10.0099104     12.1493797    -10.7151704
P       -4.9793891      7.0042435     -7.0380229
O       -4.7637862      8.5456900     -6.7433263
C       -5.7033032      9.2328843     -5.9246340
X       -5.5941832      8.7334025     -4.4965606
X       -4.7953113      6.7462881     -3.5196582
X       -3.0570149      5.2520601     -4.8172067
X       -1.9879621      3.7287938     -3.6737595
P       -3.1017638     11.2510954     -3.0516004
O       -2.8380329     10.9776411     -1.4893495
C       -1.7969493     11.7543488     -0.8256731
X       -1.9092645     11.8502745      0.7356547
X       -3.6359455     11.9694529      2.3855999
X       -6.6488896     11.8994986      1.9778834
P        0.2861596      8.9952195      2.1063399
O       -0.2594031      8.4724467      3.5299094
C       -0.5183743      9.3887594      4.6167793
X       -0.8511214      8.5535076      5.8568416
X       -1.3051532      6.2699616      6.2572905
X       -0.5051680      4.2770800      4.7479441
X       -0.2423391      2.3433526      5.7801179
P        2.4664875      9.0849486      7.4801861
O        2.4171608      8.6451881      9.0074695
C        3.0878212      9.4209315      9.9931414
X        3.2706958      8.6350304     11.2836770
X        2.5499824      6.5875696     12.1412655
X        1.8206067      4.6848587     10.4647065
X        2.3316557      2.4699674     11.3345620
P        6.9072863      7.7005377     10.8443610
O        7.2360196      6.2930112     11.4993353
C        8.1402695      5.3763422     10.8553639
X        7.7221545      5.0693983      9.4183095
X        8.2535579      5.8733576      7.2852040
X       10.5079513      7.5013315      6.1397374
P        9.5511834      1.8269425      8.7693981
O        9.6810406      1.5457131      7.2147299
C       10.9507353      1.2126545      6.6741220
X       10.7873451      1.0616797      5.1853215
X       11.3562206      2.3519373      3.3166245
X       13.6520106      4.2750345      3.1286403
P       13.2755845     -1.8241979      4.8756047
O       13.8735646     -1.9060729      3.3997879
C       13.2930546     -2.7295641      2.3838825
X       14.0467093     -2.6330223      1.0652030
X       15.5860874     -1.1424196      0.1108160
X       17.3108634      0.2746175      1.4845097
X       18.9726232      1.3534904      0.0429548
   142
  Step:          350 Total energy:    2384.7407614190201      Temperature:   0.61600000000000077     
O       -6.2816731     -4.0289930     -9.7335868
C       -6.5273508     -4.4689790    -11.0703959
X       -6.0461764     -3.4106446    -12.0490911
X       -5.6375173     -1.1046977    -11.9362596
X       -4.7668540      0.1237297     -9.7908381
X       -3.6204672      2.2021206    -10.4066969
P       -2.5552011     -4.8541537    -12.6630819
O       -1.4917123     -3.7358518    -13.0381943
C       -0.7111148     -3.6982306    -14.2463482
X        0.3226872     -2.5942658    -14.1375344
X        0.5495348     -0.6237143    -12.8784003
X       -0.2555904      0.1241957    -10.4753578
X        0.9421542      2.1215009     -9.6926441
P        3.2874111     -4.7702125    -12.9355934
O        3.7010614     -4.3249752    -11.4727643
C        4.3831941     -3.1193310    -11.1188729
X        4.8308586     -3.2061846     -9.6726211
X        4.1712744     -4.5122705     -7.8476751
X        3.2640757     -6.9501234     -8.1494375
X        3.2747843     -8.2676474     -6.0856283
P        8.2707801     -4.7165509    -10.3625562
O        9.2178423     -4.4302123     -9.1182321
C       10.3485825     -5.3033768     -8.8667780
X       11.0713303     -4.7975624     -7.6128380
X       11.1226036     -2.7509318     -6.4840357
X        9.0212894     -1.1955312     -6.3253631
X        9.0164376      0.1304856     -4.2800890
P        9.3743420     -7.0641833     -5.0007606
O        9.4916545     -6.4565874     -3.5372855
C       10.7317544     -6.0052201     -2.9706533
X       10.4793632     -5.3687633     -1.5968366
X        8.6805898     -4.1853185     -0.6569081
X        5.6990925     -4.0523219     -1.3030095
P       10.6436287     -8.5909368      0.4350787
O       10.3280681     -8.3549767      1.9580609
C        9.2629249     -9.0504709      2.6198512
X        9.7622696     -9.8126493      3.8563912
X       11.8236154    -10.6339373      4.6102237
X       14.1669236     -9.5701944      4.1531885
X       15.6543705    -10.1643151      6.0059833
P        9.1786305     -7.0506167      6.4795988
O        8.9674155     -7.6912742      7.9215197
C        8.2465427     -8.9083849      8.1232921
X        7.6108873     -8.8889809      9.4943519
X        7.8610634     -7.6559169     11.4361892
X        8.5327752     -5.1338004     11.1985492
X        8.1662014     -3.9657119     13.3277420
P        4.2463648     -7.4422628      8.4917467
O        3.5075030     -6.8148926      9.7731374
C        2.8707276     -7.6539274     10.7276715
X        2.0833438     -6.8211824     11.6993953
X        1.8719960     -4.5386824     12.1532031
X        2.6377467     -2.2709239     10.3362941
P       -1.2458777     -7.0078731      9.8834873
O       -2.0200605     -5.6485518     10.0739238
C       -2.9916322     -5.4725084     11.1000011
X       -3.7206391     -4.1509615     10.9456912
X       -3.3271231     -2.1018930      9.8811628
X       -1.5510431     -1.4680505      7.4702214
P       -6.5132980     -5.4132638      8.7341818
O       -7.3560522     -4.1699663      8.1505401
C       -8.5096816     -3.7179174      8.8462918
X       -9.1432605     -2.5964635      8.0722597
X       -8.3669221     -0.9825365      6.5954565
X       -6.0991730     -0.8761084      4.6296094
P      -11.5239025     -4.6506914      5.9161538
O      -11.4636844     -4.2255293      4.3954386
C      -11.7498775     -2.8888962      3.9528164
X      -11.9081730     -2.8763241      2.4423349
X      -11.2098419     -4.2419360      0.6657606
X      -10.5003365     -7.1381489      0.3736217
P      -15.7614387     -2.2961175      2.2039047
O      -16.0870700     -1.0839965      1.2193879
C      -16.6909174     -1.2359174     -0.0640559
X      -16.7730710      0.1433197     -0.7315980
X      -16.9693410      2.3504454      0.0470305
X      -16.5201241      3.6790023      2.6926325
P      -13.4820743      0.0816861     -2.6942668
O      -13.7179997     -0.0062658     -4.2755398
C      -12.9607961      0.7284282     -5.2603059
X      -12.9725036      0.1858076     -6.6966826
X      -13.3927397     -1.9169218     -7.6510352
X      -14.8263717     -4.3791146     -6.6986157
P      -15.3511003      2.7938438     -8.2212874
O      -14.6871233      3.5895231     -9.4339714
C      -13.7826211      2.9142709    -10.3037685
X      -13.0856431      3.9140641    -11.2701669
X      -13.3402880      6.1562913    -11.9460863
X      -14.7190400      8.4736057    -10.5516292
P       -9.9119316      4.5092234     -9.0377808
O       -9.0586118      5.6963044     -9.6066206
C       -7.7163469      5.4342866     -9.9155575
X       -6.9804729      6.6907381    -10.2732282
X       -7.4614828      8.8910185    -11.0066643
X       -9.8200976     10.0026189    -10.7912927
X      -10.0224069     12.1706951    -10.7769155
P       -5.0044450      7.0380023     -7.1224270
O       -4.7665931      8.5588316     -6.6590614
C       -5.6826648      9.2892959     -5.8454517
X       -5.6112806      8.7352293     -4.4374537
X       -4.7951328      6.7555486     -3.4920622
X       -3.0781520      5.2816478     -4.8258946
X       -1.9983039      3.7428091     -3.7178492
P       -3.1049908     11.2488187     -3.0030786
O       -2.8272738     10.9497718     -1.4479380
C       -1.7209739     11.5901016     -0.7893601
X       -1.8981237     11.8517932      0.7080400
X       -3.6647064     12.0249179      2.2297956
X       -6.6172680     11.9598814      1.9901118
P        0.2872248      9.0756786      2.0212653
O       -0.2107807      8.5532306      3.4410682
C       -0.4749574      9.3660056      4.5883617
X       -0.8833488      8.5865886      5.8308758
X       -1.2442262      6.3114617      6.2827674
X       -0.5284448      4.2416882      4.7841370
X       -0.2131450      2.3132079      5.7876303
P        2.4156783      9.1150468      7.5080159
O        2.4154016      8.5604845      8.9903685
C        3.0614210      9.3888776      9.9653342
X        3.2774284      8.6356658     11.2769103
X        2.5249640      6.6066524     12.1541796
X        1.8437118      4.7026362     10.4934701
X        2.3655841      2.4485815     11.3231168
P        6.9285923      7.7050014     10.8081284
O        7.2243383      6.2744294     11.4527094
C        8.1160276      5.3361144     10.8363844
X        7.6806812      5.0791319      9.4009151
X        8.1756066      5.9307566      7.2724349
X       10.4764642      7.5106174      6.1588145
P        9.5401571      1.8076983      8.7839649
O        9.7154553      1.6079283      7.2166081
C       10.9453882      1.1872841      6.6394671
X       10.7838919      1.0319744      5.1420507
X       11.3689711      2.3400802      3.2939685
X       13.6657164      4.2614076      3.1270153
P       13.2628832     -1.7821245      4.8834537
O       13.8488309     -1.9182110      3.4055571
C       13.2589389     -2.7310005      2.3847048
X       14.0236220     -2.6100304      1.0710201
X       15.5643278     -1.1128497      0.1308985
X       17.3106172      0.2697681      1.5174870
X       18.9602226      1.3435850      0.0543981
   142
  Step:          375 Total energy:    2385.8550396283758      Temperature:   0.61600000000000021     
O       -6.2475414     -4.0258257     -9.6825829
C       -6.5315181     -4.4253823    -11.0263761
X       -6.0405343     -3.3892166    -12.0233184
X       -5.5909858     -1.0917631    -11.9512495
X       -4.7863456      0.1525736     -9.7884357
X       -3.6129587      2.1912343    -10.4253710
P       -2.5829029     -4.8230047    -12.6250481
O       -1.5327018     -3.6803473    -12.9957918
C       -0.7503945     -3.6599816    -14.2030914
X        0.3084386     -2.5747666    -14.0810111
X        0.5998257     -0.6082192    -12.8374761
X       -0.2370404      0.1142891    -10.4528707
X        0.9387617      2.1269582     -9.6880159
P        3.2508969     -4.7303614    -12.9693906
O        3.6737647     -4.3240866    -11.4775122
C        4.4027921     -3.1352116    -11.1519192
X        4.8390426     -3.2205395     -9.6972131
X        4.2203307     -4.5301091     -7.8324235
X        3.2569386     -6.9537637     -8.1481826
X        3.2719653     -8.2770084     -6.0962281
P        8.2610574     -4.6689756    -10.3501678
O        9.2257284     -4.4257673     -9.1356511
C       10.3400361     -5.2771533     -8.8529263
X       11.0423102     -4.7755267     -7.6230671
X       11.0910638     -2.7824510     -6.4063053
X        9.0162995     -1.1708198     -6.3471345
X        9.0218187      0.1215867     -4.2528830
P        9.4310851     -7.0888407     -5.0066438
O        9.5140511     -6.4762529     -3.5314711
C       10.7334560     -6.0290130     -2.9477128
X       10.4611236     -5.3585459     -1.6222431
X        8.7153906     -4.0680967     -0.7041902
X        5.6971386     -4.0474211     -1.2845725
P       10.6570552     -8.5863250      0.4020234
O       10.3578135     -8.3319888      1.9618854
C        9.2868628     -9.0234089      2.5760167
X        9.7509050     -9.7802450      3.7942534
X       11.7778100    -10.6272129      4.5947700
X       14.1515378     -9.5775066      4.1895411
X       15.6374888    -10.1650942      6.0281676
P        9.1971302     -7.1033906      6.4592603
O        9.0137513     -7.6785992      7.9362468
C        8.2777751     -8.9148476      8.1407457
X        7.6098610     -8.9606616      9.5180797
X        7.8235378     -7.6653628     11.4608134
X        8.5336123     -5.1505883     11.1902464
X        8.1414358     -3.9644975     13.3008613
P        4.2829001     -7.4042308      8.5066832
O        3.5516369     -6.8906790      9.8185465
C        2.8932445     -7.6921415     10.8071841
X        2.1011100     -6.8276695     11.7897927
X        1.8488590     -4.5287410     12.1905763
X        2.6548928     -2.3050443     10.3439096
P       -1.2389613     -7.0470420      9.9108480
O       -1.9782226     -5.6343475     10.1097055
C       -3.0093914     -5.4377007     11.0906830
X       -3.7309716     -4.1084999     10.9697124
X       -3.2771352     -2.0805340      9.8933106
X       -1.5309040     -1.4738266      7.4559780
P       -6.4807030     -5.3886045      8.7414193
O       -7.3587794     -4.2496764      8.1293872
C       -8.4413744     -3.7491296      8.8789007
X       -9.0890747     -2.6018059      8.1261152
X       -8.3574073     -0.9923731      6.5973696
X       -6.1001863     -0.8752299      4.5971417
P      -11.5228163     -4.6455351      5.8825600
O      -11.5335748     -4.2161390      4.3492661
C      -11.7334536     -2.8533331      3.9040392
X      -11.8748320     -2.8089587      2.3905133
X      -11.1656622     -4.2052439      0.6229831
X      -10.5328978     -7.1646753      0.3813696
P      -15.7511358     -2.2842112      2.2133836
O      -16.1406251     -1.0629080      1.2482494
C      -16.6600952     -1.2377174     -0.0621378
X      -16.8183941      0.1220757     -0.7337758
X      -17.1174765      2.3478791      0.0083580
X      -16.5374075      3.6703857      2.6867368
P      -13.4861050      0.1151735     -2.6754198
O      -13.6941754     -0.0355953     -4.2737372
C      -12.9378839      0.7236808     -5.2296178
X      -13.0149460      0.1470229     -6.6703711
X      -13.3835696     -1.9501552     -7.6785539
X      -14.8478016     -4.4012149     -6.7027776
P      -15.3578263      2.7916820     -8.2715389
O      -14.6184045      3.5685671     -9.4466579
C      -13.6834602      2.9072320    -10.2909576
X      -13.0262015      3.8849544    -11.2552314
X      -13.3660466      6.0963529    -11.8972501
X      -14.7173980      8.4779990    -10.5455914
P      -10.0174033      4.4860552     -9.0086619
O       -9.0644368      5.6732071     -9.5283744
C       -7.7310880      5.3663016     -9.9194785
X       -6.9648602      6.6153341    -10.3095073
X       -7.5362803      8.7771059    -11.0712089
X       -9.8442133      9.9971952    -10.8170058
X      -10.0223885     12.1962582    -10.8396813
P       -5.0054028      7.0839940     -7.1378425
O       -4.7947487      8.5916442     -6.6741750
C       -5.6459724      9.3178936     -5.7711692
X       -5.6271941      8.7473117     -4.3523511
X       -4.8043725      6.7590920     -3.4477734
X       -3.0921562      5.2968613     -4.8350909
X       -2.0098253      3.7560407     -3.7580990
P       -3.1127794     11.2167681     -2.9326621
O       -2.7897290     10.9948846     -1.4046787
C       -1.6734397     11.6105298     -0.8231766
X       -1.8610674     11.7128145      0.6427233
X       -3.5971334     12.3316019      2.0773962
X       -6.6038062     12.0059944      1.9998542
P        0.2972119      9.1195970      1.9598348
O       -0.1576434      8.5867943      3.4046873
C       -0.5978295      9.4068708      4.4825606
X       -0.8756464      8.5636192      5.7180628
X       -1.2045523      6.3131352      6.2608600
X       -0.5522170      4.2018184      4.8232397
X       -0.1923139      2.3144576      5.7780109
P        2.3857503      9.1280330      7.5225527
O        2.5066927      8.5233690      8.9956821
C        3.0106476      9.3810763     10.0148360
X        3.2643437      8.6292836     11.2948643
X        2.5080567      6.6081868     12.2269262
X        1.8666772      4.7095765     10.5216351
X        2.3981325      2.4390961     11.3077139
P        6.9512127      7.7000021     10.7740641
O        7.2288902      6.2571483     11.3935698
C        8.1222720      5.3386731     10.7792152
X        7.6310237      5.0618752      9.3758991
X        8.0750220      6.0363853      7.2853320
X       10.4467713      7.5176354      6.1763253
P        9.5170167      1.8015255      8.8095303
O        9.7393616      1.6339081      7.2354053
C       10.9283473      1.1559758      6.6185112
X       10.7548111      1.0292508      5.1116429
X       11.4212651      2.2759944      3.2423167
X       13.6803890      4.2517527      3.1218244
P       13.2695425     -1.7703297      4.8711383
O       13.8422940     -1.9119107      3.3913224
C       13.2285838     -2.7177118      2.3823741
X       14.0010877     -2.6036437      1.0781417
X       15.5238546     -1.0736499      0.1693198
X       17.3114057      0.2651757      1.5458421
X       18.9460701      1.3309317      0.0656722
   142
  Step:          400 Total energy:    2399.4778213597137      Temperature:   0.61600000000000044     
O       -6.2086038     -4.0218427     -9.6409874
C       -6.5499921     -4.3962720    -10.9806298
X       -6.0624073     -3.3665558    -11.9888729
X       -5.5892003     -1.0737094    -11.9578352
X       -4.8051946      0.1647452     -9.7884507
X       -3.5951338      2.1943892    -10.4447259
P       -2.5991165     -4.7976469    -12.5948142
O       -1.5656750     -3.6361171    -12.9217993
C       -0.8070305     -3.5979414    -14.1210259
X        0.2883696     -2.5401790    -14.0360970
X        0.6699017     -0.5800144    -12.8028529
X       -0.2205654      0.1012500    -10.4361721
X        0.9337355      2.1285820     -9.6874189
P        3.1976325     -4.6777000    -12.9875243
O        3.6792036     -4.3588960    -11.5117408
C        4.3745632     -3.1718797    -11.1448670
X        4.8191263     -3.2326059     -9.7026705
X        4.2500032     -4.5546956     -7.8573051
X        3.2514665     -6.9521485     -8.1635835
X        3.2696421     -8.2881472     -6.0957801
P        8.2472399     -4.6278469    -10.3727301
O        9.2332094     -4.4276148     -9.1109764
C       10.3507989     -5.2667403     -8.8265948
X       11.0559359     -4.7893916     -7.5866476
X       11.0478234     -2.7883373     -6.3496925
X        9.0124633     -1.1416745     -6.3498833
X        9.0239332      0.1059127     -4.2394168
P        9.4875866     -7.1206802     -5.0236789
O        9.5185819     -6.4599714     -3.5806390
C       10.7214202     -6.0207611     -2.9496982
X       10.4644030     -5.3193483     -1.6428398
X        8.7055244     -4.0825234     -0.7298535
X        5.7021523     -4.0427713     -1.2659046
P       10.6815342     -8.5679120      0.3819597
O       10.3887927     -8.3346556      1.9150909
C        9.2815280     -8.9450643      2.5631550
X        9.7118576     -9.7789175      3.7690704
X       11.7463244    -10.6362546      4.5744098
X       14.1215265     -9.5845975      4.2157035
X       15.6342260    -10.1701068      6.0630437
P        9.2171868     -7.1342085      6.4476507
O        9.0100604     -7.7573673      7.8982979
C        8.2912909     -8.9585535      8.1489460
X        7.6707756     -8.9870339      9.5185260
X        7.8132374     -7.6659685     11.4502998
X        8.5300635     -5.1756341     11.1965262
X        8.1152989     -3.9614123     13.2670757
P        4.3329455     -7.3992470      8.5520846
O        3.5232226     -6.8892067      9.8561977
C        2.9737246     -7.7240048     10.9159448
X        2.0751557     -6.8723364     11.8275362
X        1.9250072     -4.5623469     12.2324933
X        2.6711645     -2.3399783     10.3520177
P       -1.2129313     -7.0451183      9.9637100
O       -2.0216903     -5.6747943     10.1275998
C       -3.0020813     -5.4450373     11.1472606
X       -3.6938618     -4.0873083     10.9912124
X       -3.2126271     -2.0467264      9.9189894
X       -1.5123805     -1.4822699      7.4401708
P       -6.4294020     -5.4339454      8.7321749
O       -7.3568767     -4.2771860      8.1225246
C       -8.4758093     -3.7658539      8.8729827
X       -9.0870104     -2.5753443      8.1229427
X       -8.3230123     -0.9851531      6.5700831
X       -6.1077840     -0.8756313      4.5618743
P      -11.5137328     -4.6439126      5.8641069
O      -11.5965919     -4.1602007      4.3281096
C      -11.7471747     -2.8259575      3.8296734
X      -11.8358390     -2.7837326      2.3163179
X      -11.1902081     -4.2507212      0.6181673
X      -10.5671759     -7.1797276      0.3913965
P      -15.7027788     -2.2781050      2.2173259
O      -16.1782753     -1.0480760      1.3002422
C      -16.6464925     -1.1782718     -0.0576875
X      -16.8572915      0.1537491     -0.7383635
X      -17.2105676      2.2773604      0.1006596
X      -16.5597842      3.6513807      2.6626623
P      -13.5026656      0.1484223     -2.6922313
O      -13.6809544     -0.0651590     -4.2659923
C      -12.9116904      0.6536038     -5.2065536
X      -13.0585094      0.1209522     -6.6139668
X      -13.4380586     -1.9368035     -7.6100127
X      -14.8672877     -4.4200570     -6.7102654
P      -15.3637225      2.7668394     -8.2965388
O      -14.5427651      3.5303323     -9.4467800
C      -13.6490167      2.8724600    -10.3536556
X      -12.9240692      3.8293389    -11.2355638
X      -13.3567072      6.0292713    -11.8820756
X      -14.7197652      8.4859173    -10.5365412
P      -10.1167186      4.4777994     -8.9640931
O       -9.0749919      5.5868365     -9.4440344
C       -7.7597800      5.3167525     -9.9863039
X       -6.9748063      6.5813073    -10.4016667
X       -7.5808742      8.7259559    -11.1475511
X       -9.8970023     10.0087654    -10.8417275
X       -9.9999318     12.1820782    -10.9058944
P       -4.9933254      7.1249677     -7.0874453
O       -4.8565489      8.6822958     -6.7129076
C       -5.7076200      9.3235740     -5.7333387
X       -5.5817065      8.7326187     -4.3186541
X       -4.8083499      6.7281143     -3.4098557
X       -3.1167649      5.3181324     -4.8447252
X       -2.0160235      3.7562923     -3.7886908
P       -3.1225702     11.1899226     -2.9093146
O       -2.7969461     10.9793234     -1.3729539
C       -1.5905764     11.5685582     -0.9036082
X       -1.8651481     11.8726546      0.5819211
X       -3.6256322     12.5460553      2.0022854
X       -6.5859209     12.0533642      2.0071173
P        0.3562174      9.0798907      1.9379094
O       -0.0717732      8.5651168      3.3781445
C       -0.7612173      9.3731087      4.3437239
X       -0.8970380      8.5638740      5.6572080
X       -1.2126056      6.3087789      6.2491855
X       -0.5806662      4.2009987      4.8094351
X       -0.1668916      2.2832002      5.7939957
P        2.4064918      9.1469045      7.5156894
O        2.5580706      8.5349222      8.9813454
C        2.9745544      9.3622102     10.0830719
X        3.2426955      8.6052330     11.3684253
X        2.5255778      6.5613175     12.2741115
X        1.8880600      4.7050523     10.5564954
X        2.4302377      2.4447752     11.2890695
P        6.9468874      7.6934093     10.7422316
O        7.2584972      6.2600603     11.3730382
C        8.1032057      5.3099188     10.7416049
X        7.6122737      5.0908068      9.3296758
X        7.9889420      6.1041654      7.2475410
X       10.4120055      7.5219750      6.1965955
P        9.4920507      1.8101914      8.8158328
O        9.7032606      1.6093542      7.2454218
C       10.9060525      1.1754117      6.6154941
X       10.7427109      1.0105446      5.1080924
X       11.4785034      2.2114997      3.2327297
X       13.6957726      4.2403370      3.1134612
P       13.2886804     -1.7844049      4.8463110
O       13.8458157     -1.8973290      3.3638313
C       13.2122501     -2.7171630      2.3869890
X       13.9659113     -2.5906451      1.0788139
X       15.4904081     -1.0406619      0.2005706
X       17.3084297      0.2580467      1.5751838
X       18.9316281      1.3158529      0.0770231
   142
  Step:          425 Total energy:    2412.2176569933285      Temperature:   0.61600000000000066     
O       -6.1674818     -4.0038643     -9.6139937
C       -6.5778145     -4.3782050    -10.9332109
X       -6.1039086     -3.3562542    -11.9545719
X       -5.6601974     -1.0555968    -11.9429603
X       -4.8066963      0.1822056     -9.7966546
X       -3.5738498      2.1992367    -10.4570140
P       -2.6165726     -4.7748365    -12.5621114
O       -1.5545871     -3.6013727    -12.8267948
C       -0.8513576     -3.5159161    -14.0534819
X        0.2482997     -2.4727763    -14.0128583
X        0.7141494     -0.5278641    -12.7932521
X       -0.2018090      0.0917037    -10.4225168
X        0.9310664      2.1344436     -9.6855683
P        3.1586083     -4.6577940    -13.0088657
O        3.6884711     -4.3862615    -11.5262449
C        4.3081131     -3.1520420    -11.1456477
X        4.7979774     -3.2377157     -9.7042507
X        4.2372263     -4.5486038     -7.8369511
X        3.2497815     -6.9670283     -8.1740414
X        3.2700288     -8.2832466     -6.1060816
P        8.2838560     -4.5944159    -10.3872761
O        9.2068567     -4.4525276     -9.0998800
C       10.3490138     -5.2651272     -8.8335077
X       11.0781312     -4.7886975     -7.5611822
X       11.0321576     -2.7625101     -6.3511442
X        9.0157918     -1.1155673     -6.3388722
X        9.0225082      0.0965693     -4.2299582
P        9.5374308     -7.1550680     -5.0437673
O        9.5022879     -6.4234646     -3.6204174
C       10.7466787     -5.9642215     -3.0384648
X       10.5063086     -5.3246277     -1.6585557
X        8.7203237     -4.1378784     -0.6678076
X        5.7045906     -4.0357688     -1.2498888
P       10.7160825     -8.5399696      0.3508566
O       10.4179309     -8.3260138      1.9118549
C        9.2604659     -8.8926716      2.5661046
X        9.6881014     -9.7712034      3.7443334
X       11.7177945    -10.6509409      4.5414114
X       14.0954274     -9.5927687      4.2497588
X       15.6264222    -10.1704164      6.0885050
P        9.2365172     -7.1446907      6.4393187
O        9.0140765     -7.8325688      7.8751290
C        8.3172154     -9.0463937      8.1193446
X        7.6802170     -9.0173647      9.4979382
X        7.8763193     -7.7187101     11.4605824
X        8.5341523     -5.1955394     11.1922221
X        8.0872721     -3.9434624     13.2483157
P        4.3610756     -7.4093906      8.6460643
O        3.5148384     -6.9076063      9.8883161
C        2.9594545     -7.7346106     10.8988397
X        2.1825082     -6.8815706     11.8644144
X        1.9828451     -4.5938764     12.2532151
X        2.6902661     -2.3739544     10.3634283
P       -1.1959867     -7.0346176     10.0130081
O       -2.0656135     -5.7119226     10.1432944
C       -2.9486184     -5.4239491     11.2230590
X       -3.6518323     -4.0956846     11.0121847
X       -3.1366733     -2.0830383      9.9370209
X       -1.4937244     -1.4918782      7.4267558
P       -6.4012077     -5.4810340      8.7010428
O       -7.3271097     -4.2842915      8.1812333
C       -8.5042292     -3.7493215      8.8053411
X       -9.1227712     -2.6006417      8.0488566
X       -8.3134273     -0.9590238      6.5754624
X       -6.1128776     -0.8751267      4.5224711
P      -11.5017689     -4.6099807      5.8360939
O      -11.6203995     -4.1052371      4.3226104
C      -11.6934227     -2.7732686      3.8442969
X      -11.8667159     -2.7742478      2.3007310
X      -11.2391474     -4.2449898      0.5450570
X      -10.5981151     -7.1951613      0.4024704
P      -15.6512785     -2.2644554      2.2021527
O      -16.1402728     -1.0420471      1.3099308
C      -16.6232003     -1.2539197     -0.0313002
X      -16.8558154      0.1052353     -0.7206139
X      -17.3164767      2.3341750      0.0062541
X      -16.5779835      3.6411928      2.6533091
P      -13.5331244      0.1834878     -2.6910082
O      -13.7179044     -0.0918642     -4.2447352
C      -12.9241146      0.6685643     -5.1657628
X      -13.0338914      0.1466160     -6.5987555
X      -13.5112075     -1.9213457     -7.6137114
X      -14.8883032     -4.4447388     -6.7146550
P      -15.3310443      2.7293470     -8.3076622
O      -14.5091017      3.4597182     -9.4515866
C      -13.6274531      2.7640934    -10.3719407
X      -12.9918702      3.8378876    -11.3022252
X      -13.3101910      6.1194954    -11.7875251
X      -14.7133591      8.4788936    -10.5359381
P      -10.1064970      4.4842085     -8.8606331
O       -9.0569928      5.5533022     -9.4337063
C       -7.7835988      5.2764425    -10.0550671
X       -7.0853771      6.5946114    -10.4236548
X       -7.6512767      8.7163200    -11.1741571
X       -9.9428235      9.9916934    -10.8684721
X       -9.9587568     12.1691399    -10.9722100
P       -5.0016387      7.1860642     -7.0551147
O       -4.9509601      8.7255923     -6.7008555
C       -5.7773150      9.3180159     -5.7157231
X       -5.5852216      8.7086191     -4.3457350
X       -4.8019974      6.7163381     -3.3899055
X       -3.1312368      5.3235619     -4.8532963
X       -2.0220268      3.7595331     -3.8187898
P       -3.1227271     11.1901028     -2.9332904
O       -2.8259919     10.9089341     -1.3996017
C       -1.6712426     11.5932640     -0.8405362
X       -1.7427147     12.1267578      0.5791006
X       -3.6045797     12.6255818      1.8725581
X       -6.5636651     12.1030397      2.0121529
P        0.4191409      9.0355621      1.9188784
O       -0.0173477      8.5264808      3.3658583
C       -0.7457535      9.2857265      4.3350073
X       -1.0003728      8.5449719      5.6339470
X       -1.2219946      6.2946649      6.2481192
X       -0.6002872      4.1888139      4.7821499
X       -0.1450522      2.2890028      5.8022807
P        2.4669811      9.1891076      7.4882187
O        2.5232510      8.5707832      8.9824992
C        2.9536873      9.3684335     10.1273011
X        3.2463144      8.5711323     11.4139619
X        2.5804325      6.5179245     12.3398432
X        1.8990898      4.7101694     10.5755818
X        2.4708756      2.4386807     11.2791982
P        6.9115217      7.6894004     10.7200853
O        7.2881169      6.2929900     11.3948492
C        8.1061944      5.3423868     10.7030907
X        7.5851095      5.1102881      9.2916657
X        7.9304274      6.0936717      7.1909963
X       10.3831201      7.5316053      6.2149984
P        9.4667029      1.8365040      8.7895809
O        9.6174907      1.5407783      7.2276796
C       10.8796235      1.2067862      6.6405311
X       10.7770675      0.9965718      5.1387226
X       11.5187226      2.1872054      3.2642240
X       13.7129125      4.2281997      3.1024960
P       13.3150095     -1.8020814      4.8319403
O       13.8496060     -1.8948340      3.3384332
C       13.2225741     -2.7395481      2.3796655
X       13.9299510     -2.5572671      1.0560255
X       15.4794110     -1.0148014      0.2089857
X       17.3031891      0.2511477      1.6021150
X       18.9213114      1.3033013      0.0889788
   142
  Step:          450 Total energy:    2397.3026415161903      Temperature:   0.61599999999999888     
O       -6.1357523     -3.9786494     -9.5874024
C       -6.5892711     -4.3728857    -10.8846829
X       -6.1599673     -3.3529432    -11.9232984
X       -5.7624389     -1.0447026    -11.9038608
X       -4.7956797      0.2054039     -9.8120408
X       -3.5512842      2.2002599    -10.4637627
P       -2.6304257     -4.7403181    -12.5189998
O       -1.5370564     -3.6046132    -12.7318375
C       -0.9154952     -3.4221082    -14.0175374
X        0.2211304     -2.4046828    -13.9907336
X        0.7071269     -0.4453172    -12.8125349
X       -0.1781154      0.0874238    -10.4081664
X        0.9284491      2.1435299     -9.6775269
P        3.1379935     -4.6765900    -13.0258992
O        3.6727641     -4.3662208    -11.5547757
C        4.2609475     -3.1335989    -11.1296056
X        4.7560401     -3.2582335     -9.6926254
X        4.1832930     -4.5642648     -7.8469809
X        3.2550953     -6.9815130     -8.1849813
X        3.2720848     -8.2727111     -6.1177804
P        8.3352377     -4.5639918    -10.4028208
O        9.2039921     -4.4986726     -9.0589837
C       10.3698582     -5.2786196     -8.8391900
X       11.0661790     -4.7407334     -7.6178182
X       11.0799120     -2.7469559     -6.4173550
X        9.0226381     -1.1058687     -6.3357344
X        9.0165176      0.1035052     -4.2008884
P        9.5737138     -7.1720915     -5.0475840
O        9.5489835     -6.4180271     -3.6484684
C       10.7342838     -5.9087279     -3.0609820
X       10.4830926     -5.3186867     -1.6984462
X        8.7152329     -4.2313543     -0.6473884
X        5.7195201     -4.0322533     -1.2294552
P       10.7529397     -8.5259062      0.3468852
O       10.4291488     -8.3045049      1.8877883
C        9.2943352     -8.8895481      2.5266666
X        9.6882900     -9.7407264      3.7000303
X       11.6745666    -10.6796235      4.5161516
X       14.0757034     -9.6016193      4.2912320
X       15.6063183    -10.1705637      6.1052532
P        9.2483126     -7.1705593      6.4489083
O        9.0472343     -7.8570461      7.8718916
C        8.2822576     -9.0651492      8.0956262
X        7.6948478     -9.1001139      9.5193227
X        8.0059821     -7.7671557     11.4059421
X        8.5424307     -5.2168979     11.1901241
X        8.0573860     -3.9244755     13.2307255
P        4.3719224     -7.4373581      8.6934948
O        3.5737426     -6.8984224      9.9578551
C        2.9570421     -7.7761236     10.8879910
X        2.2157349     -6.9100380     11.8964346
X        2.0608061     -4.6005583     12.3237596
X        2.7133218     -2.4051347     10.3736573
P       -1.1733655     -7.0532645     10.0633330
O       -2.0250160     -5.7000676     10.1822009
C       -2.9021127     -5.4445840     11.2864771
X       -3.6257412     -4.1313926     11.0613515
X       -3.1068674     -2.1471161      9.9321319
X       -1.4709134     -1.5058797      7.4136354
P       -6.3984883     -5.4909734      8.6890602
O       -7.2867484     -4.2647270      8.1790873
C       -8.5303589     -3.8183768      8.7431053
X       -9.0969050     -2.6222212      7.9840622
X       -8.3213326     -0.9437560      6.5193646
X       -6.1189199     -0.8762371      4.4834591
P      -11.5073377     -4.5709172      5.8066619
O      -11.6052072     -4.0739023      4.2852968
C      -11.6353744     -2.7421548      3.7954355
X      -11.8475966     -2.7875309      2.2944496
X      -11.3226773     -4.2841471      0.5716000
X      -10.6289896     -7.2007492      0.4156212
P      -15.6223727     -2.2641635      2.2071808
O      -16.0406659     -1.0267049      1.2725774
C      -16.6263721     -1.2045776     -0.0099985
X      -16.8776391      0.1021247     -0.6791722
X      -17.2379966      2.2784968      0.0498881
X      -16.6046682      3.6215597      2.6257452
P      -13.5815506      0.2103566     -2.6623886
O      -13.7497485     -0.0700951     -4.2445606
C      -12.9849013      0.7122410     -5.1890277
X      -12.9987813      0.1285847     -6.5898407
X      -13.5668332     -1.9325460     -7.5951867
X      -14.9089165     -4.4680409     -6.7191295
P      -15.2711493      2.6652841     -8.2929814
O      -14.5301096      3.4147109     -9.4920786
C      -13.7444795      2.7769071    -10.4822865
X      -12.9641607      3.7970385    -11.2786027
X      -13.2323713      6.0931493    -11.7972464
X      -14.7106340      8.4798512    -10.5270683
P      -10.0396114      4.4908483     -8.7688149
O       -9.0887050      5.5798109     -9.4260126
C       -7.8546511      5.2814579    -10.0671436
X       -7.1025692      6.5870945    -10.3489383
X       -7.6895546      8.7119259    -11.1695026
X      -10.0034757      9.9668273    -10.8979578
X       -9.9070526     12.1525809    -11.0398174
P       -5.0654585      7.2131863     -7.0987571
O       -4.9881869      8.7685374     -6.6973405
C       -5.8848886      9.3146512     -5.7082647
X       -5.6932802      8.7298328     -4.3102024
X       -4.8010370      6.7355394     -3.4324870
X       -3.1342388      5.3097103     -4.8699013
X       -2.0243331      3.7573911     -3.8458349
P       -3.1226770     11.1815275     -2.9458284
O       -2.7423055     10.9890639     -1.3867772
C       -1.6048630     11.7266711     -0.9305468
X       -1.7007083     12.0970981      0.5371127
X       -3.5234326     12.7592443      1.9394142
X       -6.5360661     12.1522289      2.0146208
P        0.4328017      9.0448048      1.9076488
O        0.0026699      8.4821510      3.3681069
C       -0.6906716      9.2641395      4.3588390
X       -0.9410058      8.4990200      5.6531362
X       -1.2986326      6.2377646      6.2411812
X       -0.6081047      4.1555473      4.7624572
X       -0.1282399      2.3376741      5.7941792
P        2.4803636      9.2129763      7.4777811
O        2.4740093      8.6501276      8.9820110
C        2.9326310      9.3628512     10.1422696
X        3.2454182      8.5428571     11.3958480
X        2.6379773      6.5120704     12.3470801
X        1.9066189      4.7111092     10.5887386
X        2.5160664      2.4267063     11.2729111
P        6.8633987      7.6916100     10.7081517
O        7.3038569      6.3312576     11.3845598
C        8.1302142      5.4222893     10.6561401
X        7.5509197      5.1277170      9.2797756
X        7.9258763      6.0237512      7.1529913
X       10.3554261      7.5424974      6.2327267
P        9.4261816      1.8654669      8.7399165
O        9.5529727      1.4591024      7.2097027
C       10.8574161      1.1896166      6.6898235
X       10.8000704      1.0033373      5.1879215
X       11.5335418      2.1829323      3.2980236
X       13.7341404      4.2148173      3.0894414
P       13.3491536     -1.8197369      4.8374406
O       13.8516685     -1.9173961      3.3311553
C       13.2449279     -2.7655229      2.3507739
X       13.9070746     -2.5294560      1.0074322
X       15.4630938     -0.9768265      0.1963056
X       17.2988075      0.2420342      1.6227924
X       18.9122864      1.2889943      0.1073129
   142
  Step:          475 Total energy:    2405.2897438455379      Temperature:   0.61600000000000044     
O       -6.1314770     -3.9551023     -9.5533356
C       -6.5848832     -4.3835385    -10.8401454
X       -6.2022267     -3.3485749    -11.8870500
X       -5.8183022     -1.0344242    -11.8819904
X       -4.7934997      0.2178857     -9.8195383
X       -3.5245647      2.2118929    -10.4738779
P       -2.6439745     -4.7101087    -12.4674017
O       -1.5328566     -3.5886919    -12.6895770
C       -0.9550163     -3.3635844    -13.9948093
X        0.1855055     -2.3628430    -13.9616780
X        0.6720825     -0.3803775    -12.8368354
X       -0.1552235      0.0920979    -10.3973363
X        0.9232571      2.1587094     -9.6591380
P        3.1141566     -4.6958668    -13.0369670
O        3.6399470     -4.3579075    -11.5684676
C        4.2569517     -3.1408047    -11.1458487
X        4.7490243     -3.2585988     -9.7051347
X        4.1431581     -4.5497084     -7.8371720
X        3.2540059     -6.9992091     -8.2113347
X        3.2736130     -8.2687980     -6.1132873
P        8.3472851     -4.5232187    -10.4064959
O        9.1647724     -4.5386720     -9.0547491
C       10.3931305     -5.2710311     -8.8914918
X       11.0982666     -4.7440640     -7.6496074
X       11.1231989     -2.7002822     -6.5278269
X        9.0294896     -1.0995521     -6.3194178
X        9.0060166      0.1110707     -4.1778581
P        9.6065663     -7.1579457     -5.0689384
O        9.5729628     -6.4521111     -3.6393280
C       10.7556847     -5.8970329     -3.0811522
X       10.4849981     -5.3312599     -1.6962971
X        8.7266409     -4.2167441     -0.6197660
X        5.7260307     -4.0334767     -1.2075645
P       10.7949775     -8.5269343      0.3400072
O       10.4487954     -8.2595180      1.8693648
C        9.3078094     -8.8753614      2.4703180
X        9.7060811     -9.7527949      3.6620954
X       11.6791428    -10.6900975      4.5286297
X       14.0419272     -9.6036769      4.3126457
X       15.5851754    -10.1786135      6.1331068
P        9.2484161     -7.1991488      6.4751705
O        9.0460068     -7.9058495      7.8942838
C        8.2255432     -9.0675526      8.0635573
X        7.7569687     -9.1210288      9.5082619
X        8.1018862     -7.8263701     11.4210838
X        8.5519966     -5.2220725     11.1977025
X        8.0279360     -3.9219858     13.2023761
P        4.3745144     -7.4742271      8.6956220
O        3.6912945     -6.9175565     10.0351820
C        2.9763609     -7.7686298     10.9571094
X        2.1568958     -6.9210026     11.9232863
X        2.1539350     -4.6249173     12.3428564
X        2.7334610     -2.4363909     10.3884865
P       -1.1520668     -7.0764085     10.1100925
O       -1.9152970     -5.7052623     10.2779749
C       -2.9138237     -5.5126815     11.2823540
X       -3.6076045     -4.1666548     11.0830133
X       -3.1190593     -2.2074939      9.8866795
X       -1.4516143     -1.5229250      7.4076120
P       -6.3953306     -5.4586694      8.7188764
O       -7.2317366     -4.2454693      8.0940866
C       -8.4955891     -3.8624791      8.6645975
X       -9.0810438     -2.6313089      7.9701558
X       -8.3161526     -0.9985108      6.4778867
X       -6.1255569     -0.8784308      4.4467015
P      -11.5410368     -4.5388001      5.7705756
O      -11.5529380     -4.0912682      4.2534307
C      -11.6023725     -2.7373989      3.7739183
X      -11.8105150     -2.7523913      2.2815841
X      -11.3869527     -4.2956509      0.5701318
X      -10.6497919     -7.2207808      0.4288836
P      -15.6134131     -2.2414778      2.2146901
O      -15.9964294     -0.9908977      1.2874425
C      -16.6524220     -1.2400502      0.0403196
X      -16.8824572      0.0539150     -0.7332715
X      -17.2121550      2.2873883     -0.0342965
X      -16.6312387      3.6148699      2.6225740
P      -13.6297707      0.2217049     -2.6624694
O      -13.7707983     -0.0106092     -4.2320555
C      -12.9807614      0.6872306     -5.1982713
X      -13.0234043      0.1163201     -6.5884545
X      -13.4993026     -1.9789058     -7.5412775
X      -14.9339771     -4.4882977     -6.7217341
P      -15.2368482      2.6081776     -8.2781447
O      -14.5709935      3.4002022     -9.5208506
C      -13.7602360      2.8189280    -10.5263006
X      -12.9260318      3.8232757    -11.2313759
X      -13.2087098      6.0804422    -11.7479815
X      -14.7031356      8.4680081    -10.5221519
P      -10.0217216      4.4724295     -8.7377853
O       -9.1093608      5.6392789     -9.3544570
C       -7.8413061      5.3498288     -9.9146890
X       -7.1132539      6.5925699    -10.3599128
X       -7.7563304      8.7305387    -11.0948528
X      -10.0462452      9.9545524    -10.9325069
X       -9.8649185     12.1170535    -11.0997626
P       -5.1458116      7.2335567     -7.1514753
O       -5.0893286      8.7413891     -6.6589222
C       -5.9595558      9.3484617     -5.6844690
X       -5.7999300      8.7433863     -4.2950578
X       -4.8283737      6.7658027     -3.4954344
X       -3.1425344      5.3022142     -4.8993164
X       -2.0163014      3.7380856     -3.8557019
P       -3.1160372     11.1783582     -2.9511200
O       -2.6359364     11.1275244     -1.4570005
C       -1.5294943     11.8451584     -0.9303675
X       -1.8128273     12.0012495      0.5641500
X       -3.5705544     12.6270510      1.9640079
X       -6.4702673     12.2089880      2.0134241
P        0.3985273      9.0789844      1.9252991
O       -0.0191785      8.5036646      3.3312502
C       -0.5911240      9.2597623      4.4046838
X       -0.7856537      8.4228919      5.6776871
X       -1.3439128      6.2108991      6.1847010
X       -0.6292653      4.1775647      4.7244548
X       -0.1056173      2.3477325      5.8078837
P        2.4365243      9.2236248      7.4902227
O        2.4399784      8.6503326      8.9945577
C        2.9151164      9.4194167     10.1064882
X        3.2306780      8.5861060     11.3726238
X        2.6313702      6.5175103     12.3073458
X        1.9138337      4.6831053     10.5962501
X        2.5530067      2.4284590     11.2656118
P        6.8313317      7.7259592     10.6872935
O        7.2851625      6.3425488     11.3522798
C        8.1411244      5.4456685     10.6486651
X        7.5631957      5.1582269      9.2702487
X        7.9362051      5.9604460      7.1044281
X       10.3271396      7.5515726      6.2484233
P        9.3674252      1.8714987      8.7188893
O        9.5493797      1.4490948      7.2003583
C       10.8506433      1.1443944      6.7000845
X       10.7908155      0.9715035      5.1997704
X       11.5362289      2.2059722      3.3580030
X       13.7547664      4.2026947      3.0765572
P       13.3756059     -1.8333870      4.8511047
O       13.8573317     -1.9525668      3.3294826
C       13.2499451     -2.7789285      2.3225598
X       13.9098136     -2.5098870      0.9776220
X       15.4282180     -0.9164999      0.1794929
X       17.2882395      0.2276325      1.6331923
X       18.9073221      1.2778247      0.1302733
   142
  Step:          500 Total energy:    2390.4055812517472      Temperature:   0.61599999999999933     
O       -6.1559651     -3.9363543     -9.5017715
C       -6.5913368     -4.3685918    -10.7947583
X       -6.1985357     -3.3513926    -11.8530890
X       -5.8117136     -1.0403169    -11.8753127
X       -4.7942402      0.2347658     -9.8211500
X       -3.5014655      2.2205213    -10.4868797
P       -2.6514428     -4.6845816    -12.4123961
O       -1.5751571     -3.5359656    -12.6842355
C       -0.9699544     -3.3688367    -13.9677571
X        0.1563262     -2.3528211    -13.9587121
X        0.6416703     -0.3513791    -12.8462627
X       -0.1348672      0.1073594    -10.3887553
X        0.9171177      2.1820449     -9.6298315
P        3.0701580     -4.6889814    -13.0399925
O        3.6164717     -4.3842937    -11.5594145
C        4.2947688     -3.1769736    -11.1804308
X        4.7479723     -3.2571762     -9.7350058
X        4.1227858     -4.5734288     -7.9005380
X        3.2519108     -7.0127220     -8.2299386
X        3.2754111     -8.2623208     -6.1128377
P        8.3097727     -4.4744879    -10.4102018
O        9.1492181     -4.5782721     -9.0569375
C       10.4014239     -5.2809964     -8.9166891
X       11.1438006     -4.7215886     -7.6966461
X       11.1154384     -2.6506167     -6.5795298
X        9.0415532     -1.0957688     -6.2934446
X        8.9972052      0.1119130     -4.1677082
P        9.6339128     -7.1286231     -5.1053169
O        9.5929634     -6.4893783     -3.6455144
C       10.7757711     -5.9167696     -3.0575013
X       10.5116309     -5.3188573     -1.6671462
X        8.7395514     -4.1551259     -0.6435922
X        5.7307734     -4.0382905     -1.1829126
P       10.8496765     -8.5280777      0.3311493
O       10.4698650     -8.2454989      1.8591952
C        9.3399951     -8.8637603      2.4658472
X        9.6991473     -9.7703892      3.6499808
X       11.6576075    -10.7152853      4.5474257
X       14.0198195     -9.5963053      4.3272082
X       15.5526676    -10.1902163      6.1600754
P        9.2446451     -7.2251480      6.4908033
O        9.0432991     -7.9458423      7.8846336
C        8.2543053     -9.1060226      8.0719475
X        7.7570488     -9.0912338      9.5003760
X        8.1777156     -7.8091727     11.4135191
X        8.5665883     -5.2382584     11.1947049
X        7.9939361     -3.9266926     13.1803114
P        4.3875355     -7.5210818      8.7350209
O        3.7616512     -6.9986214     10.0941481
C        2.9791969     -7.7965158     10.9728019
X        2.2464837     -6.9247959     11.9646038
X        2.0999373     -4.6249291     12.4043904
X        2.7562346     -2.4629507     10.4026249
P       -1.1198064     -7.1081656     10.1504340
O       -1.8635940     -5.7018601     10.3640876
C       -2.9532025     -5.5493512     11.2689570
X       -3.6272937     -4.2145433     11.0455429
X       -3.1161966     -2.2576654      9.8613381
X       -1.4349843     -1.5432022      7.4058072
P       -6.3784868     -5.4069082      8.7529977
O       -7.1867182     -4.2473560      8.0385088
C       -8.4181082     -3.8571588      8.6193274
X       -9.0754535     -2.6723883      7.9483882
X       -8.3199551     -1.0140998      6.4911441
X       -6.1284437     -0.8822389      4.4048407
P      -11.5911364     -4.5198779      5.7452433
O      -11.4744776     -4.1026478      4.2114710
C      -11.5841208     -2.7293505      3.7589459
X      -11.8031916     -2.7422204      2.2479481
X      -11.3592471     -4.3077329      0.5329763
X      -10.6653463     -7.2477871      0.4427914
P      -15.5965098     -2.1863004      2.2318731
O      -16.0681181     -0.9807243      1.2945523
C      -16.6522177     -1.2559704      0.0146054
X      -16.9179411      0.0690403     -0.7070006
X      -17.1851842      2.2979832     -0.0355788
X      -16.6650268      3.6092203      2.6174681
P      -13.6451208      0.2226592     -2.6864712
O      -13.8156196      0.0059977     -4.2787422
C      -12.9274607      0.6882234     -5.1724638
X      -12.9942977      0.0666585     -6.5701260
X      -13.3972504     -2.0583886     -7.5119963
X      -14.9616560     -4.5076734     -6.7221307
P      -15.2614364      2.5968935     -8.2966055
O      -14.5870844      3.3732868     -9.4878068
C      -13.6473250      2.7492389    -10.3902331
X      -12.9238948      3.8728420    -11.2258515
X      -13.1390063      6.1599965    -11.7321166
X      -14.6975019      8.4540615    -10.5167067
P      -10.0461342      4.4545217     -8.7516724
O       -9.1024348      5.6577951     -9.2121688
C       -7.8233472      5.3743324     -9.8021512
X       -7.1187583      6.6052344    -10.3202789
X       -7.7516766      8.7387302    -11.1308777
X      -10.0887495      9.9499645    -10.9615162
X       -9.8372042     12.0904442    -11.1575367
P       -5.2238545      7.2377162     -7.1586214
O       -5.2264605      8.7705367     -6.6577558
C       -6.0774932      9.3675440     -5.6549106
X       -5.8110509      8.7479379     -4.2833147
X       -4.8725712      6.7382779     -3.5407558
X       -3.1432028      5.2857770     -4.9218050
X       -2.0174615      3.7301702     -3.8665328
P       -3.0827790     11.2282178     -3.0431269
O       -2.6665129     11.0917052     -1.4865430
C       -1.6077780     11.8906322     -0.9082863
X       -1.6788028     11.9707506      0.6071229
X       -3.4041197     12.4431456      2.1388504
X       -6.4378965     12.2641122      2.0093168
P        0.3614863      9.1287702      1.9140572
O       -0.0853979      8.4919695      3.3286269
C       -0.4259531      9.2793218      4.4608091
X       -0.7481284      8.4361129      5.6785630
X       -1.3237930      6.2266796      6.2118529
X       -0.6456287      4.1714424      4.6796441
X       -0.0901657      2.3677551      5.8096505
P        2.4013680      9.2281698      7.5394398
O        2.4292439      8.6222426      9.0144275
C        2.8955238      9.4458174     10.0823686
X        3.1888235      8.6780531     11.3628420
X        2.5801756      6.5812988     12.2224561
X        1.9139202      4.6583884     10.5833842
X        2.5938876      2.4159987     11.2685609
P        6.8317085      7.7700264     10.6589574
O        7.2240402      6.3754850     11.3070296
C        8.1165965      5.4905208     10.6381018
X        7.5951576      5.1353788      9.2531499
X        7.9155926      5.9484118      7.0784286
X       10.3039070      7.5621527      6.2589172
P        9.3068243      1.8392000      8.7362804
O        9.5705125      1.5263439      7.1900064
C       10.8338539      1.0576728      6.7022463
X       10.7819047      0.9184732      5.1881916
X       11.5234062      2.2215373      3.3817186
X       13.7770901      4.1931362      3.0637619
P       13.3907954     -1.8506137      4.8487639
O       13.8757661     -1.9804694      3.3350372
C       13.2523684     -2.7741911      2.3224036
X       13.9140988     -2.4923435      0.9805673
X       15.3769249     -0.8546226      0.1682042
X       17.2708656      0.2090881      1.6348577
X       18.9097963      1.2716617      0.1566644
   142
  Step:          525 Total energy:    2400.8880471576044      Temperature:   0.61600000000000044     
O       -6.2063388     -3.9150419     -9.4481220
C       -6.6049012     -4.3490642    -10.7521941
X       -6.1762145     -3.3512513    -11.8165226
X       -5.7475855     -1.0467835    -11.8833329
X       -4.7917504      0.2646301     -9.8224738
X       -3.4905972      2.2169136    -10.5025656
P       -2.6512000     -4.6606279    -12.3596875
O       -1.6433468     -3.4686765    -12.6971102
C       -0.9826139     -3.4037962    -13.9558008
X        0.1431235     -2.3691128    -13.9843779
X        0.6172242     -0.3745211    -12.8365834
X       -0.1209240      0.1332321    -10.3840725
X        0.9100059      2.2118099     -9.5961870
P        3.0190174     -4.6681809    -13.0252591
O        3.5945367     -4.3956791    -11.5838518
C        4.3117880     -3.2091609    -11.2494667
X        4.7383075     -3.2575085     -9.7935361
X        4.1359331     -4.5803640     -7.9440687
X        3.2441730     -7.0356624     -8.2397881
X        3.2764200     -8.2489110     -6.1253011
P        8.2771889     -4.4408414    -10.4086409
O        9.1384983     -4.5998458     -9.0613122
C       10.3905730     -5.2405738     -8.9391404
X       11.1368048     -4.6959933     -7.7574163
X       11.1461832     -2.6583761     -6.5440471
X        9.0403171     -1.0954083     -6.2850542
X        8.9937773      0.1145949     -4.1541936
P        9.6559649     -7.0944810     -5.1406193
O        9.6424470     -6.4617360     -3.6731353
C       10.7979445     -5.9493129     -3.0096354
X       10.5215454     -5.2894250     -1.6887755
X        8.7609452     -4.1126439     -0.6994348
X        5.7352099     -4.0445707     -1.1593653
P       10.9030307     -8.5157455      0.3396181
O       10.5055357     -8.3035469      1.8715193
C        9.3566204     -8.8712615      2.4865642
X        9.6959597     -9.7607698      3.6619697
X       11.6394201    -10.7206000      4.5320546
X       14.0065725     -9.5873327      4.3441572
X       15.5036052    -10.2004178      6.1739937
P        9.2383794     -7.2427384      6.4593266
O        9.0765735     -7.9513825      7.8837869
C        8.2942957     -9.1287300      8.0901396
X        7.7649299     -9.1496298      9.5164316
X        8.1694676     -7.8084436     11.4301057
X        8.5928827     -5.2372910     11.1735641
X        7.9550844     -3.9387252     13.1639504
P        4.4140430     -7.5835443      8.7829217
O        3.7432258     -7.0028750     10.1132860
C        3.0457657     -7.8416059     11.0463342
X        2.2945176     -6.9438309     12.0171409
X        2.0773204     -4.6389570     12.3737507
X        2.7765475     -2.4887428     10.4191429
P       -1.0683632     -7.1087457     10.2091163
O       -1.8772054     -5.7541281     10.3798997
C       -2.9941907     -5.5828227     11.2477487
X       -3.6497642     -4.2275950     11.0312388
X       -3.1011329     -2.2599636      9.8666023
X       -1.4199440     -1.5643393      7.4020708
P       -6.3580371     -5.4037991      8.7487683
O       -7.1731401     -4.2142866      8.0480778
C       -8.4311575     -3.8779849      8.6179743
X       -9.0164799     -2.6670589      7.8946200
X       -8.2807372     -0.9884098      6.4459601
X       -6.1384553     -0.8870155      4.3666767
P      -11.6307805     -4.5057321      5.7165014
O      -11.4250611     -4.0724289      4.1958196
C      -11.5871918     -2.7608613      3.6820977
X      -11.7979109     -2.7926039      2.1878292
X      -11.2663681     -4.3314134      0.5109453
X      -10.6841445     -7.2652410      0.4552969
P      -15.5945797     -2.1320276      2.2691940
O      -16.1234490     -1.0019674      1.2737981
C      -16.7029250     -1.2150949     -0.0108318
X      -16.9090199      0.0982377     -0.7169878
X      -17.2382378      2.2807999     -0.0202849
X      -16.7019561      3.6114688      2.6187900
P      -13.6507059      0.2100236     -2.7360184
O      -13.8502785      0.0151248     -4.3026419
C      -12.9256577      0.6296618     -5.1894456
X      -12.8933823      0.0051962     -6.5842984
X      -13.3548817     -2.1056733     -7.4587094
X      -14.9873630     -4.5219783     -6.7235344
P      -15.3313178      2.5828768     -8.3018451
O      -14.5489696      3.3991196     -9.4622291
C      -13.5668680      2.8367705    -10.3448360
X      -12.8200199      3.8484829    -11.1863778
X      -13.1207019      6.0896669    -11.7654071
X      -14.6989226      8.4502535    -10.5075047
P      -10.0766343      4.4465334     -8.7587813
O       -9.0946922      5.6304379     -9.1183751
C       -7.8565450      5.3719539     -9.8278734
X       -7.1648770      6.6439794    -10.2522233
X       -7.8185369      8.6491892    -11.2174901
X      -10.0952306      9.9300397    -10.9882776
X       -9.8330731     12.0927930    -11.2148189
P       -5.2830867      7.2807356     -7.0824218
O       -5.3706313      8.8237519     -6.7189563
C       -6.1473437      9.3296071     -5.6362471
X       -5.7694188      8.7372812     -4.2750650
X       -4.8653929      6.7052309     -3.5659840
X       -3.1450938      5.2619784     -4.9411305
X       -2.0301676      3.7358362     -3.8804455
P       -3.0402344     11.2764209     -3.1194539
O       -2.7274595     11.0744334     -1.5492675
C       -1.6290567     11.7694433     -0.8820308
X       -1.7295928     12.0581989      0.6299080
X       -3.3828727     12.2657992      2.2799715
X       -6.3878933     12.3166343      2.0035932
P        0.3685682      9.1080944      1.8995672
O       -0.1742141      8.5078396      3.2744171
C       -0.3649799      9.2935434      4.4623557
X       -0.7918543      8.5122696      5.7062026
X       -1.2252719      6.2602641      6.1241205
X       -0.6594965      4.1474340      4.6656905
X       -0.0866530      2.4070463      5.7823008
P        2.3983882      9.2209323      7.5959511
O        2.4310414      8.6284419      9.0593747
C        2.8727205      9.5036716     10.0931154
X        3.1510788      8.7318978     11.3452302
X        2.5082174      6.6312424     12.1743900
X        1.9077864      4.6434820     10.5460193
X        2.6342597      2.3982950     11.2814356
P        6.8250881      7.8356946     10.6263548
O        7.1704453      6.3947234     11.2441265
C        8.0936394      5.4910332     10.6231222
X        7.5644433      5.1411889      9.2470069
X        7.8939618      5.9707440      7.0860763
X       10.2857355      7.5760539      6.2602161
P        9.2668140      1.7702503      8.7516369
O        9.6086574      1.6119619      7.1976941
C       10.7858467      0.9721913      6.6951771
X       10.7825705      0.9004212      5.1708436
X       11.5479763      2.2166992      3.3881320
X       13.7926457      4.1827100      3.0507221
P       13.3905502     -1.8773299      4.8368357
O       13.9186946     -1.9796511      3.3362887
C       13.2674103     -2.7678091      2.3427010
X       13.8878256     -2.4741054      0.9905312
X       15.3253645     -0.8200772      0.1660224
X       17.2507336      0.1936768      1.6248476
X       18.9149896      1.2694853      0.1850895
   142
  Step:          550 Total energy:    2395.0486501792861      Temperature:   0.61599999999999999     
O       -6.2702319     -3.8792110     -9.3929455
C       -6.6099306     -4.3336436    -10.7057324
X       -6.1702122     -3.3409567    -11.7742633
X       -5.6754401     -1.0507958    -11.8799100
X       -4.7885490      0.2879771     -9.8137502
X       -3.4734920      2.2223451    -10.5218854
P       -2.6417673     -4.6254603    -12.2968943
O       -1.6785895     -3.4244600    -12.7296975
C       -0.9931272     -3.4304498    -13.9773331
X        0.1121848     -2.3897449    -13.9923294
X        0.6176097     -0.4197215    -12.8261632
X       -0.1111426      0.1685712    -10.3734190
X        0.9062107      2.2463618     -9.5581443
P        2.9673932     -4.6749315    -13.0353834
O        3.5670143     -4.3692519    -11.5829256
C        4.3002097     -3.1818511    -11.2804738
X        4.7262548     -3.2670882     -9.8369043
X        4.1409204     -4.5986402     -8.0099217
X        3.2404864     -7.0441379     -8.2587525
X        3.2805840     -8.2405942     -6.1225919
P        8.2798704     -4.4321993    -10.4115880
O        9.0763646     -4.5601430     -9.0489209
C       10.3805740     -5.1416842     -8.9940837
X       11.1187539     -4.6689523     -7.7537927
X       11.1060470     -2.6844225     -6.5042485
X        9.0449185     -1.1035824     -6.2791182
X        8.9987596      0.1161210     -4.1389865
P        9.6865305     -7.0548293     -5.1621905
O        9.6657888     -6.3804369     -3.7129076
C       10.8700516     -5.9389492     -3.0621522
X       10.5710158     -5.3010606     -1.7013319
X        8.7848162     -4.1042430     -0.7174256
X        5.7393151     -4.0496245     -1.1332122
P       10.9515518     -8.4958405      0.3668000
O       10.5746120     -8.3536667      1.9125360
C        9.3451151     -8.8724282      2.4707222
X        9.6937645     -9.7716935      3.6667675
X       11.6540674    -10.7283647      4.5356515
X       13.9902352     -9.5703677      4.3515182
X       15.4563474    -10.2145482      6.2000017
P        9.2273937     -7.2496325      6.4353270
O        9.1035239     -7.9590474      7.8667028
C        8.3292024     -9.1389838      8.1340114
X        7.8596123     -9.1934894      9.5625601
X        8.0959591     -7.7875513     11.4207050
X        8.6251310     -5.2299424     11.1603826
X        7.9184969     -3.9637063     13.1405471
P        4.4295512     -7.6441321      8.8356483
O        3.7080936     -7.0213033     10.1036704
C        3.1699005     -7.8264390     11.1665158
X        2.2731206     -6.9986527     12.0811159
X        2.1123641     -4.6852557     12.3857697
X        2.8024274     -2.5062600     10.4358716
P       -1.0123618     -7.1182216     10.2761966
O       -1.8961154     -5.7821669     10.3582547
C       -3.0177686     -5.5987989     11.2421991
X       -3.6315540     -4.2129743     11.0600995
X       -3.0622300     -2.2548920      9.8897014
X       -1.4024120     -1.5871164      7.4041253
P       -6.3492985     -5.4358615      8.6986595
O       -7.1435614     -4.2072650      8.1163881
C       -8.4491195     -3.8570632      8.5821172
X       -9.0497764     -2.6406053      7.8810018
X       -8.2738893     -0.9602003      6.4338675
X       -6.1389637     -0.8908218      4.3227123
P      -11.6265234     -4.4628860      5.7025641
O      -11.4380755     -4.0879903      4.1559266
C      -11.5769098     -2.7731881      3.6545520
X      -11.7998421     -2.7988954      2.1424366
X      -11.2032381     -4.2993857      0.4049361
X      -10.6984810     -7.2901024      0.4717468
P      -15.6166809     -2.0963853      2.3123590
O      -16.0948720     -0.9811288      1.2519150
C      -16.7167871     -1.2406422     -0.0246773
X      -16.9137463      0.0982934     -0.7656405
X      -17.3364462      2.3270213     -0.0494813
X      -16.7391627      3.6235135      2.6355386
P      -13.6548582      0.1846657     -2.7729460
O      -13.8537755      0.0106565     -4.3574227
C      -12.8786977      0.5992661     -5.2112961
X      -12.8737893      0.0041010     -6.6128505
X      -13.3135552     -2.1338976     -7.4801431
X      -15.0124705     -4.5347519     -6.7190969
P      -15.3356846      2.5492709     -8.3254914
O      -14.5119698      3.4219046     -9.4036841
C      -13.5397309      2.8670195    -10.2961958
X      -12.8031724      3.8671480    -11.1563673
X      -13.1866824      6.0806114    -11.7357536
X      -14.6902899      8.4359437    -10.5002604
P      -10.0664473      4.4304722     -8.6866790
O       -9.1070622      5.6228396     -9.1235987
C       -7.9078751      5.3023792     -9.8101804
X       -7.2319017      6.5827638    -10.2804259
X       -7.8176170      8.6072102    -11.2923002
X      -10.0901060      9.9387094    -11.0197386
X       -9.8482783     12.0876876    -11.2665290
P       -5.3360010      7.3413314     -6.9763817
O       -5.4444120      8.9065655     -6.6933866
C       -6.1762256      9.3969651     -5.5866441
X       -5.7345985      8.7279172     -4.2829409
X       -4.7867393      6.7060088     -3.5263399
X       -3.1556233      5.2459791     -4.9776832
X       -2.0331736      3.7308579     -3.8777920
P       -3.0146054     11.2814206     -3.1458372
O       -2.7639037     11.1572983     -1.5770353
C       -1.6854939     11.8392377     -0.9118010
X       -1.7994108     11.9193928      0.6294414
X       -3.3902915     12.3030123      2.2795514
X       -6.3303337     12.3638576      2.0023040
P        0.3712259      9.0624816      1.8945824
O       -0.2510895      8.5414114      3.2727885
C       -0.4575005      9.4161123      4.3959044
X       -0.7702177      8.5840094      5.6517981
X       -1.2062925      6.3032274      6.0878591
X       -0.6784835      4.1656726      4.6362982
X       -0.0691773      2.4038628      5.7720536
P        2.4240731      9.2071120      7.6194592
O        2.4066541      8.6842527      9.1168348
C        2.8565985      9.5779532     10.1566486
X        3.1353334      8.7211414     11.3787138
X        2.4477288      6.6041212     12.1167165
X        1.9131166      4.6154426     10.5100440
X        2.6667063      2.4146579     11.2979339
P        6.8021706      7.8912259     10.6069277
O        7.1453936      6.4605657     11.2001880
C        8.0188568      5.4849426     10.6239653
X        7.5062869      5.1421023      9.2445157
X        7.8691361      6.0095637      7.1060912
X       10.2754047      7.5953747      6.2580599
P        9.2369444      1.7151740      8.7495833
O        9.6448007      1.6248266      7.2047018
C       10.7988726      0.9514481      6.6933957
X       10.7670900      0.8697313      5.1715630
X       11.5841338      2.1826869      3.4057459
X       13.8104727      4.1749067      3.0419901
P       13.3849392     -1.9064215      4.8333959
O       13.9516113     -1.9676616      3.3507754
C       13.2997156     -2.7742353      2.3686301
X       13.8419998     -2.4453871      0.9931692
X       15.2899375     -0.8058694      0.1553446
X       17.2318520      0.1822259      1.6131920
X       18.9250385      1.2708846      0.2201311
   142
  Step:          575 Total energy:    2410.5481476298091      Temperature:   0.61599999999999999     
O       -6.3299931     -3.8292871     -9.3459795
C       -6.6224878     -4.3153214    -10.6604747
X       -6.1759240     -3.3449429    -11.7457683
X       -5.6808809     -1.0556649    -11.8554569
X       -4.7757091      0.2980197     -9.7986332
X       -3.4507257      2.2307162    -10.5428197
P       -2.6279482     -4.5886828    -12.2329252
O       -1.6732836     -3.4332060    -12.7439042
C       -1.0281543     -3.4184469    -14.0257068
X        0.0968353     -2.3974582    -14.0012864
X        0.6216021     -0.4539820    -12.8047932
X       -0.1083720      0.1998946    -10.3595923
X        0.9068360      2.2729384     -9.5281358
P        2.9375433     -4.7144172    -13.0468230
O        3.5162960     -4.3322854    -11.6247845
C        4.2531986     -3.1514363    -11.3074411
X        4.7243769     -3.2406574     -9.8551493
X        4.1349864     -4.5971200     -8.0323395
X        3.2384971     -7.0607848     -8.2789809
X        3.2875378     -8.2373429     -6.1180739
P        8.2847335     -4.4405304    -10.4318435
O        9.0540173     -4.5005604     -9.0401495
C       10.3644025     -5.1100888     -9.0087058
X       11.1089309     -4.6181068     -7.7607328
X       11.1267597     -2.6976495     -6.4275322
X        9.0395616     -1.1064058     -6.2600934
X        9.0110676      0.1037253     -4.1385132
P        9.7121056     -7.0241428     -5.1701411
O        9.6964387     -6.3000080     -3.7548644
C       10.8989024     -5.8993428     -3.0862588
X       10.6108266     -5.2906960     -1.7136994
X        8.7750504     -4.2225305     -0.7352235
X        5.7565602     -4.0585038     -1.1081202
P       10.9996083     -8.4997202      0.4017573
O       10.6121200     -8.3357992      1.9276895
C        9.4092252     -8.9015588      2.4650952
X        9.6902597     -9.8132698      3.6348569
X       11.6374688    -10.7363870      4.5426912
X       13.9766236     -9.5555482      4.3531271
X       15.4155548    -10.2345430      6.2305509
P        9.2082647     -7.2592243      6.4364594
O        9.1163590     -7.9539804      7.8590402
C        8.4426518     -9.2013213      8.1475937
X        7.8881222     -9.1617617      9.5814800
X        8.0965733     -7.7734962     11.4480339
X        8.6553379     -5.2257474     11.1540397
X        7.8862074     -3.9956840     13.1135873
P        4.4353893     -7.7118689      8.8685120
O        3.7044289     -7.1010565     10.1656636
C        3.1518834     -7.8842863     11.2163407
X        2.3861164     -6.9723151     12.1549061
X        2.1176866     -4.6628123     12.4464501
X        2.8323367     -2.5268347     10.4551831
P       -1.0107991     -7.1550741     10.3061360
O       -1.8555826     -5.7975828     10.3628474
C       -2.9438435     -5.5890452     11.2745183
X       -3.6039877     -4.2396017     11.0587263
X       -3.0108923     -2.2699873      9.9355490
X       -1.3833724     -1.6160851      7.4104061
P       -6.3329784     -5.4680026      8.6496843
O       -7.1733388     -4.1867980      8.1105139
C       -8.4948726     -3.8240991      8.5727021
X       -9.0688466     -2.6113667      7.8932279
X       -8.2719875     -0.9737422      6.4065647
X       -6.1364209     -0.8996773      4.2809511
P      -11.5969246     -4.4215542      5.6896144
O      -11.4942844     -4.1189923      4.1283452
C      -11.5521645     -2.7896353      3.5872745
X      -11.7827831     -2.8212075      2.0779969
X      -11.2413816     -4.3628689      0.4129859
X      -10.7089911     -7.3035765      0.4872380
P      -15.6340775     -2.0690172      2.3123773
O      -16.0395902     -0.9615686      1.2338930
C      -16.6516286     -1.1875598     -0.0432155
X      -16.9686733      0.1257320     -0.7320441
X      -17.3209217      2.2969700      0.0472878
X      -16.7783442      3.6234224      2.6336181
P      -13.6614990      0.1430412     -2.7996812
O      -13.8181076      0.0275395     -4.3835633
C      -12.8567166      0.6171530     -5.2679275
X      -12.9248941     -0.0415262     -6.6450326
X      -13.3829302     -2.1715988     -7.5228550
X      -15.0245940     -4.5376159     -6.7153194
P      -15.2694316      2.4932846     -8.3497955
O      -14.4886964      3.4183487     -9.3514394
C      -13.5911192      2.7605041    -10.2417834
X      -12.8820956      3.8474535    -11.1089019
X      -13.1736426      6.1214563    -11.7809961
X      -14.6840803      8.4224272    -10.4889340
P      -10.0380672      4.4149056     -8.5685417
O       -9.1443081      5.5974136     -9.1460974
C       -7.9531618      5.2786417     -9.8091817
X       -7.1901264      6.4998913    -10.3245691
X       -7.8402100      8.5442241    -11.2528477
X      -10.0650520      9.9388632    -11.0579021
X       -9.8740857     12.0853412    -11.3132906
P       -5.4104306      7.3953037     -6.9296817
O       -5.4302571      8.9535584     -6.6327242
C       -6.1515139      9.4431686     -5.4976764
X       -5.7285518      8.8020853     -4.1945441
X       -4.7225008      6.7720703     -3.5789118
X       -3.1563663      5.2204423     -5.0097660
X       -2.0344841      3.7219689     -3.8773348
P       -3.0137268     11.2468231     -3.1608796
O       -2.7998290     11.2565699     -1.5570250
C       -1.7177101     11.9099483     -0.9471556
X       -1.7889226     11.8015212      0.5471802
X       -3.2692453     12.4521955      2.2556973
X       -6.3002794     12.4015120      2.0015077
P        0.3463960      9.0011496      1.8857072
O       -0.2168286      8.5492663      3.3173021
C       -0.5548493      9.4385469      4.3647005
X       -0.7724038      8.6146258      5.5809061
X       -1.2050084      6.3601107      6.0335873
X       -0.6926579      4.1923117      4.6247332
X       -0.0522946      2.3967385      5.7509328
P        2.4768395      9.1970470      7.6046044
O        2.3453088      8.7834400      9.1399617
C        2.8424595      9.5693509     10.2304204
X        3.1174430      8.7016971     11.4511947
X        2.4604646      6.5511134     12.1248839
X        1.9189040      4.5794042     10.4632660
X        2.6939886      2.4373211     11.3187449
P        6.7684036      7.9307098     10.5880837
O        7.1340245      6.5059399     11.2484148
C        7.9358359      5.4726556     10.6278427
X        7.4601022      5.1151233      9.2212247
X        7.8586422      6.0375776      7.1077944
X       10.2702284      7.6115748      6.2524992
P        9.2108276      1.7081607      8.7294787
O        9.6400091      1.5515535      7.1995630
C       10.8461334      0.9550350      6.7112920
X       10.7983585      0.8490146      5.1933327
X       11.6199392      2.1433988      3.4101584
X       13.8267902      4.1601018      3.0371506
P       13.3796798     -1.9323989      4.8497045
O       13.9427096     -1.9755830      3.3636514
C       13.3221081     -2.7961251      2.3694379
X       13.8163407     -2.4162123      0.9879255
X       15.2704671     -0.7931613      0.1291869
X       17.2146291      0.1667812      1.6029811
X       18.9386888      1.2695812      0.2534123
   142
  Step:          600 Total energy:    2406.4620955754372      Temperature:   0.61599999999999999     
O       -6.3879939     -3.7614386     -9.3259483
C       -6.6330140     -4.3108520    -10.6247948
X       -6.1991670     -3.3356339    -11.7087924
X       -5.7470837     -1.0384072    -11.8039359
X       -4.7485294      0.3131221     -9.7911210
X       -3.4356649      2.2318912    -10.5627776
P       -2.6159342     -4.5701964    -12.1740269
O       -1.6428803     -3.4282815    -12.7294218
C       -1.0697920     -3.3739154    -14.0545846
X        0.0857542     -2.3737412    -14.0313871
X        0.6221061     -0.4581392    -12.7746631
X       -0.1185849      0.2278921    -10.3473269
X        0.9091033      2.2956510     -9.5121513
P        2.9093720     -4.7552306    -13.0683746
O        3.4960182     -4.3224161    -11.6338245
C        4.2257915     -3.1306590    -11.3259567
X        4.6713420     -3.2183577     -9.8728906
X        4.1155272     -4.6119610     -8.0740712
X        3.2402190     -7.0726777     -8.2873537
X        3.2936148     -8.2260728     -6.1307875
P        8.2642473     -4.4473683    -10.4548336
O        9.0908766     -4.4385772     -9.1008753
C       10.3544967     -5.0707108     -8.9513418
X       11.1238423     -4.5698947     -7.7600415
X       11.1447589     -2.6722509     -6.4357015
X        9.0304070     -1.1172650     -6.2476750
X        9.0232260      0.0974451     -4.1326128
P        9.7328242     -6.9852793     -5.1796530
O        9.7305409     -6.2507015     -3.7514778
C       10.9314009     -5.8862584     -3.0948112
X       10.6464322     -5.3227278     -1.7278792
X        8.8216606     -4.2779719     -0.6836791
X        5.7679503     -4.0704212     -1.0865102
P       11.0590471     -8.5077669      0.4095654
O       10.6053190     -8.2805118      1.9420112
C        9.4247958     -8.9179292      2.4326090
X        9.7142219     -9.8256112      3.6064156
X       11.6464908    -10.7636477      4.5484730
X       13.9659726     -9.5495156      4.3680584
X       15.3671664    -10.2480727      6.2469199
P        9.1775857     -7.2784133      6.4271596
O        9.1391901     -7.9404995      7.8893659
C        8.5056990     -9.1923671      8.1815313
X        7.9056649     -9.1452543      9.5866650
X        8.1773156     -7.7772427     11.4432961
X        8.6861508     -5.2282866     11.1404387
X        7.8482466     -4.0148726     13.0944653
P        4.4165012     -7.7862605      8.8842955
O        3.7733009     -7.1868131     10.2077224
C        3.1436262     -7.9033410     11.2747186
X        2.3770410     -6.9555760     12.2064502
X        2.2235093     -4.6398649     12.5100529
X        2.8625727     -2.5441299     10.4728498
P       -1.0114032     -7.1998033     10.3303239
O       -1.7794779     -5.8150042     10.3975688
C       -2.8660857     -5.6092835     11.2917619
X       -3.5455648     -4.2698859     11.0394241
X       -2.9921062     -2.2878808      9.9293332
X       -1.3651754     -1.6474016      7.4208418
P       -6.3397372     -5.4324362      8.5990593
O       -7.2254369     -4.2334300      8.0681518
C       -8.4906115     -3.8216409      8.6195665
X       -9.0366870     -2.5855322      7.8871506
X       -8.2532043     -0.9897810      6.3434788
X       -6.1380003     -0.9099863      4.2394228
P      -11.5840100     -4.4055681      5.6695080
O      -11.5339223     -4.0899734      4.1138236
C      -11.5118264     -2.7688715      3.5521222
X      -11.8161815     -2.8331238      2.0733502
X      -11.3685174     -4.3661651      0.3510270
X      -10.7159465     -7.3263471      0.4999638
P      -15.6057943     -2.0497590      2.2643131
O      -16.0130731     -0.8987912      1.2318325
C      -16.6616303     -1.2054709      0.0008936
X      -16.9069641      0.0725655     -0.7561253
X      -17.3900588      2.2938500     -0.0474301
X      -16.8143097      3.6331003      2.6449507
P      -13.6664139      0.1130349     -2.8045757
O      -13.8483191      0.0434857     -4.3841303
C      -12.8835426      0.5733717     -5.3144828
X      -12.9336676     -0.0396092     -6.6964835
X      -13.4711903     -2.1445308     -7.6129663
X      -15.0401344     -4.5435209     -6.7099797
P      -15.2393081      2.4185611     -8.3227269
O      -14.4629763      3.3991477     -9.3239717
C      -13.6724299      2.8347551    -10.3461951
X      -12.8700113      3.8046139    -11.0768830
X      -13.1947088      6.0172830    -11.7069268
X      -14.6797424      8.4091799    -10.4804268
P      -10.0499703      4.4173784     -8.4873092
O       -9.1128519      5.5567862     -9.1347163
C       -7.9072520      5.2118715     -9.8112200
X       -7.1640271      6.4654947    -10.2838787
X       -7.7968970      8.5425089    -11.2105133
X      -10.0383952      9.9202802    -11.0976983
X       -9.9037439     12.0971243    -11.3630236
P       -5.5013268      7.4246339     -6.9402359
O       -5.4243744      8.9763395     -6.5437791
C       -6.1275155      9.5725054     -5.4219117
X       -5.7502525      8.8592184     -4.1343710
X       -4.6920619      6.8140233     -3.6171663
X       -3.1457595      5.1963422     -5.0337406
X       -2.0415085      3.7180875     -3.8870055
P       -3.0121051     11.2213207     -3.1627129
O       -2.8581247     11.3178216     -1.6023879
C       -1.6508958     11.7561237     -0.9942529
X       -1.7754346     11.9639895      0.5218698
X       -3.3479763     12.5545306      2.1309854
X       -6.2649318     12.4418646      2.0016098
P        0.3110076      8.9250519      1.8515717
O       -0.0922296      8.5039444      3.3152940
C       -0.5196805      9.4225984      4.3334046
X       -0.8337298      8.6522919      5.6174564
X       -1.2242985      6.3625774      6.0435105
X       -0.6944108      4.1875834      4.6325260
X       -0.0510750      2.4292195      5.6975554
P        2.5181379      9.2021500      7.5754277
O        2.2873487      8.8560980      9.1462962
C        2.7981751      9.5660248     10.2758807
X        3.0791573      8.6661689     11.4741500
X        2.5032065      6.4893938     12.1107996
X        1.9221533      4.5739848     10.4126611
X        2.7191797      2.4415991     11.3427265
P        6.7262459      7.9208174     10.5908564
O        7.1438599      6.5280397     11.2409652
C        7.8632498      5.4546669     10.6371354
X        7.4109177      5.1480669      9.2160712
X        7.8680294      6.0306877      7.0892565
X       10.2634215      7.6298201      6.2420484
P        9.1908291      1.7331668      8.7046706
O        9.5814713      1.4518942      7.1770937
C       10.8700250      0.9824901      6.7432952
X       10.8812886      0.8633342      5.2279775
X       11.6545268      2.1188661      3.4031724
X       13.8372105      4.1405804      3.0328703
P       13.3773368     -1.9567435      4.8742458
O       13.9125472     -2.0007270      3.3690938
C       13.3120854     -2.8032973      2.3462404
X       13.8158311     -2.4070873      0.9657748
X       15.2439512     -0.7592650      0.1048904
X       17.2001052      0.1532872      1.5913565
X       18.9482548      1.2678008      0.2837230
   142
  Step:          625 Total energy:    2410.8941739087859      Temperature:   0.61599999999999955     
O       -6.4448636     -3.6960777     -9.3094962
C       -6.6298732     -4.3027426    -10.5899568
X       -6.2251629     -3.3166194    -11.6725104
X       -5.8117279     -1.0108356    -11.7530449
X       -4.7197061      0.3264143     -9.7798274
X       -3.4224311      2.2334704    -10.5828161
P       -2.5962317     -4.5550184    -12.1328996
O       -1.6282426     -3.4141064    -12.6950780
C       -1.0913759     -3.3247865    -14.0107271
X        0.0583867     -2.3307917    -14.0257763
X        0.6271382     -0.4212873    -12.7603010
X       -0.1407476      0.2500515    -10.3349164
X        0.9127785      2.3104655     -9.5084483
P        2.8798373     -4.7637103    -13.0670369
O        3.5029433     -4.3712366    -11.6592459
C        4.1748854     -3.1511801    -11.3510388
X        4.6345963     -3.2166028     -9.9069220
X        4.0816930     -4.5947151     -8.0849019
X        3.2423133     -7.0795580     -8.2996960
X        3.3004867     -8.2164115     -6.1395479
P        8.2204009     -4.4540225    -10.4790199
O        9.1345647     -4.3366419     -9.1477868
C       10.3695241     -5.0558605     -8.9885013
X       11.1581991     -4.5724489     -7.7498012
X       11.1856780     -2.5663350     -6.4939171
X        9.0139585     -1.1337070     -6.2397712
X        9.0337074      0.0999269     -4.1127865
P        9.7467556     -6.9313128     -5.1775525
O        9.7523670     -6.2744761     -3.7377189
C       10.9661464     -5.9178440     -3.0664111
X       10.6461288     -5.3499579     -1.6749456
X        8.8209040     -4.2632443     -0.6718223
X        5.7907562     -4.0892022     -1.0609494
P       11.1217166     -8.4992879      0.4248542
O       10.5743430     -8.2623919      1.8846441
C        9.4132423     -8.9046335      2.4074405
X        9.7395564     -9.8105744      3.6117703
X       11.6671919    -10.7861308      4.5186023
X       13.9490877     -9.5502137      4.3884383
X       15.3261929    -10.2596304      6.2678671
P        9.1392298     -7.2995155      6.4238160
O        9.1655856     -7.9425071      7.8780891
C        8.4538300     -9.1231975      8.1586718
X        7.9771739     -9.1824044      9.5978889
X        8.2795646     -7.7983204     11.4675493
X        8.7158382     -5.2266552     11.1354428
X        7.8099498     -4.0261713     13.0768924
P        4.3952756     -7.8834802      8.9086513
O        3.8152678     -7.1913520     10.2525554
C        3.1498218     -7.9137238     11.3260763
X        2.3163132     -6.9898358     12.2157403
X        2.3350693     -4.6698563     12.5691416
X        2.8955892     -2.5553002     10.4906319
P       -0.9700501     -7.2510759     10.3693683
O       -1.7225899     -5.8314804     10.4149891
C       -2.8597191     -5.6476471     11.2574628
X       -3.5262394     -4.2883719     11.0445655
X       -3.0180691     -2.2976436      9.9107869
X       -1.3421318     -1.6790901      7.4317404
P       -6.3375428     -5.4046634      8.5766847
O       -7.2539574     -4.2289092      7.9878135
C       -8.4310455     -3.7655596      8.6442569
X       -9.0352820     -2.5951855      7.8816189
X       -8.2467253     -1.0041482      6.3471669
X       -6.1362092     -0.9229106      4.1946510
P      -11.5904427     -4.4164661      5.6665361
O      -11.5249595     -4.0293334      4.1151881
C      -11.5124569     -2.7242511      3.5203793
X      -11.8440098     -2.8474699      2.0428193
X      -11.5073108     -4.4471365      0.3540816
X      -10.7260971     -7.3391766      0.5125135
P      -15.5480407     -2.0373823      2.2231750
O      -16.0003905     -0.8891093      1.2290262
C      -16.6528804     -1.1910084     -0.0120409
X      -16.8972826      0.1226552     -0.7205930
X      -17.3242955      2.2729819      0.0280086
X      -16.8575671      3.6295096      2.6288959
P      -13.6507037      0.0906609     -2.8072333
O      -13.9240287      0.0356176     -4.4044250
C      -12.8898150      0.5090813     -5.3005883
X      -12.9195103     -0.0754019     -6.6959343
X      -13.5463929     -2.1287439     -7.6859847
X      -15.0569112     -4.5474779     -6.7023493
P      -15.2644457      2.3917296     -8.2858922
O      -14.4755901      3.3299320     -9.2947783
C      -13.6765923      2.7407561    -10.3481039
X      -12.8569150      3.7800578    -11.1010402
X      -13.1212164      6.0406981    -11.6481927
X      -14.6805651      8.3969514    -10.4699413
P      -10.0895603      4.4396335     -8.4739020
O       -9.0405581      5.4668909     -9.0505156
C       -7.8246795      5.1973939     -9.7780758
X       -7.1817970      6.4928313    -10.2228491
X       -7.7368605      8.5790885    -11.1729624
X      -10.0060411      9.9126350    -11.1352831
X       -9.9341142     12.0822148    -11.4082242
P       -5.5796440      7.4508675     -6.9057119
O       -5.4833585      8.9988600     -6.5418638
C       -6.1293698      9.5911363     -5.4093318
X       -5.7523881      8.8426375     -4.1463796
X       -4.7238354      6.7980840     -3.6610261
X       -3.1423744      5.2060904     -5.0434642
X       -2.0428996      3.7040212     -3.8922268
P       -2.9951022     11.2151133     -3.1770096
O       -2.9233372     11.3570316     -1.5621019
C       -1.5903870     11.6538777     -1.0035265
X       -1.5285956     12.0521170      0.4858794
X       -3.2042558     12.7215109      2.0575887
X       -6.2708718     12.4800966      2.0030184
P        0.2535538      8.8729156      1.7812992
O        0.0138084      8.4917011      3.3449389
C       -0.4597096      9.4024206      4.3654926
X       -0.8138596      8.6055006      5.6271901
X       -1.2621328      6.3499750      6.1004494
X       -0.7108940      4.2365213      4.6285983
X       -0.0409520      2.4343933      5.6612941
P        2.4955111      9.2133737      7.5814699
O        2.2805414      8.8468602      9.1149059
C        2.7226035      9.6009588     10.2502292
X        3.0545859      8.6537981     11.4276154
X        2.5009619      6.4635774     12.0785616
X        1.9399274      4.5611892     10.3817411
X        2.7300609      2.4493520     11.3536391
P        6.6844463      7.8909482     10.5945080
O        7.1123559      6.4887195     11.2618773
C        7.8852259      5.4728746     10.6005822
X        7.3718994      5.1572746      9.1975405
X        7.8781566      6.0334815      7.0876862
X       10.2561802      7.6484959      6.2307571
P        9.1707091      1.7682622      8.6859377
O        9.5279451      1.3938543      7.1765253
C       10.8699162      1.0695430      6.7772476
X       10.9045739      0.8794035      5.2693977
X       11.6717475      2.0852497      3.4081837
X       13.8486636      4.1227352      3.0314394
P       13.3850208     -1.9905669      4.8883444
O       13.9003403     -2.0415545      3.3726376
C       13.2743339     -2.7894264      2.3217543
X       13.8226445     -2.4171506      0.9445288
X       15.2137631     -0.7267142      0.1021036
X       17.1893954      0.1421517      1.5865867
X       18.9530215      1.2646741      0.3128203
   142
  Step:          650 Total energy:    2396.7174773172414      Temperature:   0.61600000000000021     
O       -6.4976222     -3.6492566     -9.2756041
C       -6.6298731     -4.2705291    -10.5575629
X       -6.2224886     -3.3031237    -11.6540021
X       -5.8178172     -0.9974895    -11.7292925
X       -4.7039523      0.3348272     -9.7619072
X       -3.4079037      2.2427660    -10.6086363
P       -2.5935838     -4.5371879    -12.1103487
O       -1.6295334     -3.3707814    -12.6301162
C       -1.1090790     -3.2755514    -13.9502331
X        0.0504493     -2.2950439    -13.9514168
X        0.6068513     -0.3494742    -12.7525422
X       -0.1696421      0.2702241    -10.3291999
X        0.9141871      2.3155556     -9.5176130
P        2.8351577     -4.7539358    -13.0774918
O        3.5153876     -4.4386161    -11.6772789
C        4.1452929     -3.1896897    -11.3679419
X        4.6062538     -3.2422080     -9.9258128
X        4.0405124     -4.5861629     -8.0920082
X        3.2435770     -7.0695716     -8.3207034
X        3.3074926     -8.2116389     -6.1421591
P        8.1979755     -4.4612994    -10.4775568
O        9.1756403     -4.2524662     -9.2319351
C       10.3528837     -5.0223259     -8.9977578
X       11.1601275     -4.5078903     -7.8195791
X       11.1843981     -2.5147570     -6.5736926
X        9.0006655     -1.1437450     -6.2214525
X        9.0407046      0.0986230     -4.1041109
P        9.7455440     -6.8981523     -5.1769440
O        9.7659918     -6.3022056     -3.6932247
C       10.9669363     -5.9652127     -2.9864320
X       10.6543401     -5.3363767     -1.6404060
X        8.8408628     -4.2329822     -0.6555133
X        5.8136335     -4.1111774     -1.0368622
P       11.1767939     -8.4875916      0.4215699
O       10.5600687     -8.2584460      1.8976353
C        9.3897605     -8.9034549      2.4146599
X        9.7133869     -9.7993702      3.5957891
X       11.6250607    -10.8105912      4.4660852
X       13.9329965     -9.5465827      4.3983583
X       15.3007487    -10.2724168      6.3014693
P        9.1005052     -7.2850271      6.4047099
O        9.1681247     -7.9799375      7.8449686
C        8.4101975     -9.1548085      8.1307106
X        7.9946406     -9.1708954      9.5924422
X        8.4108028     -7.7948123     11.4539260
X        8.7343789     -5.2302409     11.1473347
X        7.7748563     -4.0341526     13.0503079
P        4.3895449     -7.9767303      9.0013020
O        3.7956350     -7.2373864     10.2646721
C        3.1032035     -7.9520124     11.2747338
X        2.4334999     -6.9977947     12.2304686
X        2.3091828     -4.6852046     12.5306971
X        2.9276972     -2.5688863     10.5148776
P       -0.9302893     -7.2748423     10.4017798
O       -1.7211091     -5.8941172     10.4062600
C       -2.8931333     -5.6632452     11.2034091
X       -3.5765917     -4.3098981     11.0173420
X       -3.0318963     -2.3150849      9.9102862
X       -1.3181233     -1.7097273      7.4402737
P       -6.3301179     -5.3962787      8.5622207
O       -7.2116550     -4.1945117      7.9624214
C       -8.4082347     -3.7479158      8.5924152
X       -9.0123199     -2.5560508      7.8737477
X       -8.2330182     -1.0151537      6.3141105
X       -6.1394821     -0.9377406      4.1540556
P      -11.5980639     -4.4201809      5.6652058
O      -11.4960515     -4.0084301      4.1166726
C      -11.5231003     -2.7138125      3.5048833
X      -11.8540829     -2.8181009      2.0104950
X      -11.5987759     -4.4945982      0.3763927
X      -10.7396073     -7.3553636      0.5236706
P      -15.5147860     -2.0432494      2.2184604
O      -15.9651240     -0.9091328      1.2023059
C      -16.6377204     -1.2012972     -0.0204777
X      -16.8849337      0.1193572     -0.7496517
X      -17.3054402      2.3332696     -0.0771918
X      -16.8993034      3.6344371      2.6263707
P      -13.6609822      0.0716257     -2.8375138
O      -13.9192862      0.0189465     -4.3845171
C      -12.8620067      0.4244771     -5.2490573
X      -12.9663179     -0.1568372     -6.6589650
X      -13.5665347     -2.1725685     -7.6730519
X      -15.0754908     -4.5495957     -6.6961154
P      -15.3128305      2.4069501     -8.2560848
O      -14.5216179      3.2765094     -9.3484998
C      -13.6001939      2.6688248    -10.2832936
X      -12.8573007      3.7772604    -11.1024428
X      -13.0397705      6.0777242    -11.6121364
X      -14.6843484      8.3846997    -10.4599908
P      -10.1353131      4.4233484     -8.4925551
O       -9.0452733      5.4867030     -8.9843303
C       -7.8270795      5.2462966     -9.7667964
X       -7.1202334      6.5262392    -10.1726403
X       -7.7098619      8.5855736    -11.1474499
X       -9.9862596      9.9091543    -11.1685223
X       -9.9619421     12.0550138    -11.4530247
P       -5.6217320      7.4647283     -6.8138880
O       -5.5688145      9.0428215     -6.6339547
C       -6.2044296      9.5371706     -5.4696475
X       -5.7489555      8.8159067     -4.1866526
X       -4.8101313      6.7265481     -3.6515171
X       -3.1266464      5.2221635     -5.0395616
X       -2.0501018      3.6945537     -3.9049586
P       -2.9860549     11.2229068     -3.1169746
O       -2.7740595     11.4123961     -1.5533447
C       -1.4878117     11.6704962     -0.9708451
X       -1.5500125     12.0612598      0.4605028
X       -3.2575067     12.7923597      1.8207955
X       -6.2358438     12.5194744      2.0047634
P        0.1840604      8.8186050      1.7526264
O        0.0806720      8.5482088      3.3070829
C       -0.4377925      9.3447592      4.3533368
X       -0.7102221      8.5503620      5.6203746
X       -1.3097482      6.3595394      6.1749848
X       -0.7300876      4.2905695      4.6217016
X       -0.0353248      2.4436233      5.6220652
P        2.4277305      9.2368058      7.5852792
O        2.2914853      8.7451761      9.0969435
C        2.6995450      9.5731508     10.1920378
X        3.0056201      8.6991256     11.3749572
X        2.4591821      6.5242671     12.0209163
X        1.9664041      4.5421440     10.3668014
X        2.7284842      2.4544302     11.3491502
P        6.6559085      7.8363692     10.6035439
O        7.0443609      6.4397187     11.2371219
C        7.8924945      5.4912316     10.5783749
X        7.4086727      5.1678579      9.1717759
X        7.8423856      6.0539373      7.0480598
X       10.2477412      7.6667313      6.2167377
P        9.1440906      1.7921290      8.6945084
O        9.5236811      1.4394744      7.1877388
C       10.8594526      1.1224883      6.7806945
X       10.8646221      0.9040176      5.2777049
X       11.6950460      2.0602767      3.4224503
X       13.8573628      4.1057822      3.0303352
P       13.3910632     -2.0234595      4.8844991
O       13.9085113     -2.0841502      3.3680465
C       13.2306974     -2.7739792      2.3118493
X       13.8089034     -2.4155266      0.9465538
X       15.2041798     -0.7306181      0.1028527
X       17.1779968      0.1339969      1.5927387
X       18.9531089      1.2624672      0.3337519
   142
  Step:          675 Total energy:    2416.4357214848542      Temperature:   0.61600000000000044     
O       -6.5351152     -3.6202361     -9.2403257
C       -6.6301387     -4.2476584    -10.5222032
X       -6.1977718     -3.2849803    -11.6174321
X       -5.7354683     -0.9905637    -11.7318401
X       -4.6880590      0.3553445     -9.7429430
X       -3.3964002      2.2455036    -10.6269123
P       -2.6100423     -4.5113049    -12.0904071
O       -1.6496573     -3.3247687    -12.5291184
C       -1.1160227     -3.2246874    -13.8594162
X        0.0568899     -2.2528298    -13.8624631
X        0.6011007     -0.2708779    -12.7475253
X       -0.2032941      0.2941390    -10.3187081
X        0.9203275      2.3180510     -9.5285644
P        2.7941724     -4.7567959    -13.0986184
O        3.5124962     -4.4757650    -11.7007302
C        4.1597002     -3.2393995    -11.3740889
X        4.5946720     -3.2678981     -9.9204372
X        4.0246723     -4.5692902     -8.0556598
X        3.2445310     -7.0618644     -8.3220904
X        3.3201867     -8.2018380     -6.1552058
P        8.1972038     -4.4755461    -10.4870553
O        9.1743290     -4.1601217     -9.2705498
C       10.3387666     -4.9697900     -9.0459160
X       11.1367843     -4.4633329     -7.8839111
X       11.2121636     -2.4956611     -6.6237100
X        8.9812386     -1.1415811     -6.1923384
X        9.0520380      0.0958300     -4.0961143
P        9.7452921     -6.8766158     -5.1638499
O        9.7731512     -6.2932439     -3.6732392
C       10.9667713     -5.9629248     -2.9676610
X       10.7080795     -5.3217584     -1.6256220
X        8.9025308     -4.2036328     -0.5884831
X        5.8367979     -4.1347966     -1.0098502
P       11.1975318     -8.4660882      0.4642865
O       10.6028804     -8.2867959      1.9247402
C        9.3807013     -8.8757943      2.3871623
X        9.6599986     -9.8096639      3.5519386
X       11.5975144    -10.7765396      4.4297048
X       13.9231401     -9.5530107      4.4208851
X       15.2803779    -10.2797818      6.3347193
P        9.0692228     -7.2664107      6.3852371
O        9.1326412     -8.0093809      7.7826026
C        8.4108325     -9.2157857      8.1284138
X        7.9881106     -9.1619515      9.5807448
X        8.5182299     -7.8297501     11.4310945
X        8.7610056     -5.2292316     11.1613945
X        7.7400467     -4.0340147     13.0340496
P        4.4135791     -8.0809812      9.0726029
O        3.7826182     -7.2659673     10.2727250
C        3.1819284     -8.0044692     11.3267350
X        2.4357551     -7.0585812     12.2551492
X        2.2871415     -4.7243193     12.5280037
X        2.9654147     -2.5735206     10.5394792
P       -0.8974095     -7.2776009     10.4442264
O       -1.7645401     -5.9167914     10.4023202
C       -2.9656087     -5.7182777     11.1791724
X       -3.5897713     -4.3459480     10.9567195
X       -3.0254387     -2.3332538      9.8967502
X       -1.2897308     -1.7406866      7.4556154
P       -6.3263875     -5.4015022      8.5390594
O       -7.1243624     -4.1453337      8.0073479
C       -8.4018174     -3.7795902      8.5459597
X       -8.9833469     -2.5331497      7.8348028
X       -8.2375185     -0.9453498      6.2693070
X       -6.1385954     -0.9550186      4.1166447
P      -11.5790609     -4.3822426      5.6596567
O      -11.4707496     -4.0318534      4.0926701
C      -11.5035477     -2.7281870      3.5260919
X      -11.8300843     -2.8167556      2.0455281
X      -11.5733495     -4.4625800      0.3717371
X      -10.7517014     -7.3791722      0.5400211
P      -15.5240291     -2.0581216      2.2456204
O      -15.9361036     -0.9159436      1.1734057
C      -16.6571379     -1.1472092     -0.0358337
X      -16.8649316      0.1442764     -0.7944286
X      -17.2695242      2.3464184     -0.1013854
X      -16.9381342      3.6366970      2.6155993
P      -13.6759535      0.0557273     -2.8103865
O      -13.9028876     -0.0288561     -4.4012021
C      -12.8197010      0.3444395     -5.2295097
X      -13.0067926     -0.1583748     -6.6532181
X      -13.4915712     -2.2062460     -7.6695302
X      -15.1016058     -4.5732605     -6.6770854
P      -15.3373825      2.4498559     -8.2396759
O      -14.5895260      3.2801032     -9.4219808
C      -13.5977633      2.7794061    -10.2901846
X      -12.7708450      3.7685220    -11.0354046
X      -13.0880365      5.9919287    -11.5637065
X      -14.6824102      8.3706505    -10.4450130
P      -10.1193813      4.4021237     -8.5182697
O       -9.1347492      5.5743058     -9.0134554
C       -7.8901981      5.2844725     -9.6714391
X       -7.1192136      6.5303718    -10.1468607
X       -7.6543374      8.6129797    -11.1454746
X       -9.9769195      9.8734395    -11.1857026
X       -9.9781587     12.0476683    -11.4986570
P       -5.6224965      7.4623091     -6.7322231
O       -5.6454085      9.0412671     -6.6231642
C       -6.2278218      9.5680500     -5.4617433
X       -5.7909626      8.7711458     -4.2238457
X       -4.8300366      6.7002361     -3.6734114
X       -3.1080198      5.2427479     -5.0107478
X       -2.0561141      3.6881048     -3.9181186
P       -2.9569106     11.2572342     -3.0675708
O       -2.6300886     11.3777148     -1.5257608
C       -1.3293670     11.7378928     -1.0963347
X       -1.5431432     12.0037077      0.4129051
X       -3.2333321     12.8773563      1.8190581
X       -6.2094832     12.5595649      2.0082469
P        0.1069856      8.7903910      1.7177494
O        0.1553742      8.5038842      3.3163724
C       -0.4310534      9.3423098      4.3225701
X       -0.7114416      8.5431758      5.6047841
X       -1.2634959      6.3391581      6.1921175
X       -0.7413058      4.3074461      4.6353894
X       -0.0421344      2.4948974      5.5626677
P        2.3749369      9.2680340      7.5921956
O        2.3317224      8.6538913      9.0504019
C        2.7252984      9.5357398     10.1093111
X        2.9624866      8.7402239     11.3580761
X        2.4018081      6.5634405     12.0237066
X        1.9933079      4.5531206     10.3593574
X        2.7314215      2.4311085     11.3504667
P        6.6232796      7.8005319     10.6130700
O        6.9682027      6.3442518     11.2011700
C        7.9161772      5.4709331     10.5617335
X        7.4656160      5.2013126      9.1359366
X        7.8389141      6.0983475      7.0118667
X       10.2401423      7.6844422      6.2049911
P        9.1272308      1.7963593      8.7351643
O        9.5513096      1.5785793      7.2050291
C       10.8366053      1.0937558      6.7736016
X       10.8541696      0.8925225      5.2575495
X       11.6841082      2.0599517      3.4016949
X       13.8712007      4.0898528      3.0345899
P       13.3802419     -2.0316850      4.8768596
O       13.9236081     -2.1104870      3.3797116
C       13.1994392     -2.7563787      2.3263745
X       13.7681260     -2.4028274      0.9586434
X       15.2289373     -0.7768726      0.1108684
X       17.1744851      0.1318326      1.6155454
X       18.9499523      1.2591532      0.3536686
   142
  Step:          700 Total energy:    2392.7465275943309      Temperature:   0.61599999999999944     
O       -6.5560789     -3.6029623     -9.2057560
C       -6.6357061     -4.2238507    -10.4913389
X       -6.1882968     -3.2699396    -11.5868779
X       -5.6503475     -0.9964703    -11.7309175
X       -4.6728394      0.3816916     -9.7313434
X       -3.3904683      2.2451330    -10.6387150
P       -2.6419823     -4.4896782    -12.0616772
O       -1.6647589     -3.2919290    -12.4365967
C       -1.1225770     -3.1706850    -13.7602931
X        0.0395954     -2.2043301    -13.8066060
X        0.6203065     -0.2256785    -12.7272796
X       -0.2451349      0.3208716    -10.3103709
X        0.9270632      2.3251706     -9.5362569
P        2.7717653     -4.7765476    -13.1177680
O        3.4867071     -4.4883477    -11.7271021
C        4.1612149     -3.2806702    -11.3715559
X        4.6128900     -3.3007061     -9.9159532
X        4.0254516     -4.5642612     -8.0386690
X        3.2394450     -7.0489284     -8.3166808
X        3.3324320     -8.1976173     -6.1701024
P        8.1847785     -4.4837195    -10.5129860
O        9.1326928     -4.1059918     -9.2968850
C       10.3241253     -4.9245457     -9.0980743
X       11.1183569     -4.4395398     -7.8738441
X       11.1604539     -2.4735186     -6.6274462
X        8.9639148     -1.1497232     -6.1823773
X        9.0633110      0.1017443     -4.0730313
P        9.7448566     -6.8587173     -5.1575135
O        9.7761522     -6.2306700     -3.6890847
C       10.9914488     -5.8977984     -2.9903709
X       10.7080847     -5.2930558     -1.6047458
X        8.8808769     -4.2382152     -0.5843908
X        5.8744270     -4.1609995     -0.9817011
P       11.2028262     -8.4516616      0.5081746
O       10.6366205     -8.2913267      1.9828264
C        9.3647030     -8.8486209      2.3343668
X        9.6204313     -9.7961481      3.5005141
X       11.5697447    -10.7271694      4.4404618
X       13.9119065     -9.5684586      4.4497482
X       15.2550029    -10.2843439      6.3601906
P        9.0343521     -7.2850502      6.3428042
O        9.0843140     -7.9995396      7.7684216
C        8.3794421     -9.2129624      8.1040012
X        8.0630969     -9.2183066      9.5862836
X        8.5268825     -7.8318924     11.4091950
X        8.7928784     -5.2284689     11.1700110
X        7.7016224     -4.0330614     13.0235306
P        4.4200743     -8.1767361      9.0819367
O        3.8113586     -7.3482437     10.3208045
C        3.2558147     -8.0079626     11.4697088
X        2.3868017     -7.0818727     12.2957311
X        2.2955977     -4.7649171     12.4922829
X        3.0000648     -2.5797714     10.5666857
P       -0.9202483     -7.2782944     10.4628929
O       -1.7532550     -5.9334995     10.4286269
C       -2.9881745     -5.7826731     11.1342703
X       -3.6053909     -4.4007657     10.9559049
X       -3.0232298     -2.3887245      9.8948012
X       -1.2597370     -1.7707934      7.4669800
P       -6.3216244     -5.4182814      8.5128557
O       -7.0836297     -4.0824107      8.0144493
C       -8.3918317     -3.7285256      8.4863953
X       -8.9700266     -2.5380313      7.7625221
X       -8.2070878     -0.9135736      6.2612622
X       -6.1427637     -0.9746821      4.0820266
P      -11.5522451     -4.3355643      5.6489632
O      -11.4449991     -4.0627859      4.1003935
C      -11.4706277     -2.7522827      3.5345119
X      -11.7934176     -2.8749893      2.0604516
X      -11.4145108     -4.4793925      0.4287452
X      -10.7707347     -7.3956454      0.5551035
P      -15.5695638     -2.0477204      2.2436911
O      -15.9614663     -0.9266890      1.1817601
C      -16.6672888     -1.1490957     -0.0454284
X      -16.8769637      0.1796634     -0.7721847
X      -17.2462491      2.3842953     -0.0828676
X      -16.9776899      3.6348690      2.5944951
P      -13.6734007      0.0376789     -2.7821085
O      -13.8785000     -0.0885511     -4.3587291
C      -12.8855158      0.3826101     -5.2770959
X      -12.9692898     -0.2027456     -6.6991002
X      -13.5141891     -2.2690645     -7.6317413
X      -15.1263004     -4.5986585     -6.6584136
P      -15.3365587      2.5192318     -8.2540035
O      -14.6430673      3.3071704     -9.4495714
C      -13.6017521      2.6777253    -10.1910933
X      -12.8372468      3.7407711    -11.0225212
X      -13.0934643      6.0224729    -11.6170763
X      -14.6859850      8.3570896    -10.4282770
P      -10.0524633      4.4112752     -8.5219689
O       -9.1954538      5.6390806     -9.0636849
C       -7.9578680      5.3398258     -9.6104042
X       -7.1899549      6.5589187    -10.0946169
X       -7.6639472      8.5899266    -11.1512741
X       -9.9645006      9.8467645    -11.1960828
X       -9.9904030     12.0139176    -11.5412015
P       -5.6260233      7.4363083     -6.7226021
O       -5.6333228      9.0106356     -6.5330399
C       -6.2539611      9.5979802     -5.3855517
X       -5.8230921      8.8568021     -4.1313367
X       -4.8428490      6.7571185     -3.6855480
X       -3.0909233      5.2630092     -4.9955548
X       -2.0581182      3.6701870     -3.9194272
P       -2.9497355     11.2874989     -3.1044638
O       -2.5851859     11.2045130     -1.5374157
C       -1.3707206     11.7797022     -1.0618047
X       -1.4009792     12.0851953      0.4329149
X       -3.1658825     12.7570883      1.8562430
X       -6.1879813     12.6035772      2.0059603
P        0.0451362      8.7264342      1.7121442
O        0.1939424      8.4970669      3.2775847
C       -0.4459806      9.3097089      4.2686435
X       -0.8042474      8.5936573      5.5721887
X       -1.2003423      6.3717947      6.2185523
X       -0.7726730      4.3354336      4.6084982
X       -0.0357085      2.5122774      5.5210118
P        2.3532670      9.2980661      7.5633720
O        2.3710428      8.6508009      9.0033536
C        2.7356982      9.5141266     10.0788130
X        2.9583306      8.6910824     11.3435718
X        2.3540388      6.5392747     12.0524468
X        2.0200587      4.5730983     10.3757166
X        2.7242541      2.4116686     11.3425699
P        6.5798464      7.7531334     10.6395811
O        6.9094671      6.2952376     11.1480466
C        7.9170540      5.5086460     10.5331860
X        7.4567022      5.1798712      9.1289382
X        7.8241203      6.1200632      7.0108312
X       10.2387845      7.7070933      6.1873550
P        9.1266525      1.8013490      8.7472164
O        9.6124758      1.6749009      7.2196974
C       10.8156832      1.0294728      6.7568621
X       10.8490507      0.8645506      5.2314252
X       11.6539473      2.0818105      3.3892166
X       13.8814250      4.0719460      3.0400120
P       13.3515061     -2.0219562      4.8810170
O       13.9173719     -2.1128579      3.3894534
C       13.1573733     -2.7283684      2.3384580
X       13.7265689     -2.3984244      0.9675700
X       15.2621282     -0.8350067      0.1327305
X       17.1731367      0.1321728      1.6457501
X       18.9376431      1.2521401      0.3692790
   142
  Step:          725 Total energy:    2400.0444982059903      Temperature:   0.61600000000000010     
O       -6.5494597     -3.5849892     -9.1766010
C       -6.6568803     -4.1995078    -10.4670375
X       -6.2081520     -3.2603798    -11.5769156
X       -5.6445288     -0.9938459    -11.7156445
X       -4.6557875      0.3964856     -9.7251360
X       -3.3722576      2.2622968    -10.6529143
P       -2.6616699     -4.4745724    -12.0204600
O       -1.6541725     -3.2828123    -12.3765496
C       -1.1775314     -3.1199534    -13.7158772
X        0.0262436     -2.1913745    -13.7760984
X        0.6468588     -0.2127393    -12.6875041
X       -0.2815388      0.3595051    -10.3094634
X        0.9362089      2.3378716     -9.5396617
P        2.7646802     -4.7851157    -13.1349346
O        3.4737349     -4.5113418    -11.7157769
C        4.1472720     -3.2908818    -11.3973275
X        4.6214656     -3.3234736     -9.9466706
X        4.0616085     -4.5611136     -8.0397069
X        3.2309705     -7.0261583     -8.3230867
X        3.3493937     -8.2061211     -6.1748474
P        8.1666642     -4.4761220    -10.5508510
O        9.1325540     -4.1495689     -9.3277601
C       10.2919694     -4.9129706     -9.0683551
X       11.0921605     -4.4216207     -7.8724955
X       11.1666369     -2.4829390     -6.5615703
X        8.9365245     -1.1427172     -6.1708959
X        9.0778132      0.1066783     -4.0589537
P        9.7532011     -6.8285845     -5.1654814
O        9.8009184     -6.1355834     -3.7206825
C       11.0093223     -5.8314204     -3.0267448
X       10.7308471     -5.2924769     -1.6305876
X        8.9472997     -4.2335273     -0.5220308
X        5.9036960     -4.1882064     -0.9600081
P       11.2230643     -8.4371808      0.5230744
O       10.6173878     -8.2431640      1.9843826
C        9.3819087     -8.8375864      2.3393515
X        9.6079787     -9.7702951      3.4811551
X       11.5146303    -10.7025707      4.4775682
X       13.8951102     -9.5805088      4.4643429
X       15.2374532    -10.2916457      6.3892486
P        8.9966692     -7.3233517      6.2904622
O        9.0306105     -7.9577573      7.7544900
C        8.4400511     -9.2120326      8.0775323
X        8.1012704     -9.2664188      9.5720818
X        8.4975465     -7.8172094     11.3787643
X        8.8216521     -5.2203499     11.1841271
X        7.6738251     -4.0403411     12.9991745
P        4.4131557     -8.2514393      9.1029889
O        3.8703353     -7.4997231     10.3875395
C        3.2141155     -8.0999036     11.5090576
X        2.4481306     -7.0587385     12.3486664
X        2.2265338     -4.7232519     12.5338419
X        3.0407083     -2.5807150     10.5867077
P       -0.9546347     -7.3205850     10.4415814
O       -1.7191484     -5.9075060     10.4624290
C       -2.9786562     -5.8249290     11.1276157
X       -3.6099482     -4.4562004     10.9875425
X       -2.9930631     -2.4851772      9.8861623
X       -1.2273460     -1.7999786      7.4749433
P       -6.3255886     -5.3879478      8.4744033
O       -7.0822982     -4.1095184      7.9531859
C       -8.3638826     -3.7131588      8.4399658
X       -8.9406923     -2.4998929      7.7471499
X       -8.1813423     -0.8800890      6.2268830
X       -6.1404684     -0.9940693      4.0419212
P      -11.5419775     -4.3264763      5.6639423
O      -11.3948234     -4.0769094      4.1004767
C      -11.4656765     -2.7489666      3.5558193
X      -11.7746204     -2.8553983      2.0634403
X      -11.2688884     -4.4337619      0.3801035
X      -10.7826695     -7.4265672      0.5663303
P      -15.5975711     -2.0462585      2.2240293
O      -16.0141805     -0.8921284      1.2035662
C      -16.7227148     -1.1631561     -0.0131776
X      -16.8721201      0.1426788     -0.7767982
X      -17.2988976      2.4084797     -0.1914536
X      -17.0091143      3.6415837      2.5813606
P      -13.6325011      0.0245449     -2.7742646
O      -13.8517693     -0.1562272     -4.3573305
C      -12.9384775      0.4383410     -5.3086701
X      -12.9894049     -0.1619110     -6.7191871
X      -13.5272670     -2.2805058     -7.6353096
X      -15.1517618     -4.6283634     -6.6412956
P      -15.3311113      2.5566064     -8.2402619
O      -14.6559659      3.3137373     -9.4492151
C      -13.5984280      2.6903163    -10.1920084
X      -12.9059512      3.7224670    -11.0493813
X      -13.1854826      5.9756775    -11.6068805
X      -14.6826541      8.3372502    -10.4186339
P      -10.0283119      4.4303770     -8.5294642
O       -9.2160254      5.6888725     -9.0648024
C       -7.9665992      5.3534710     -9.6427940
X       -7.1893376      6.6039029    -10.0499476
X       -7.6464286      8.5899060    -11.1953903
X       -9.9736069      9.8410229    -11.2050709
X       -9.9918291     11.9601655    -11.5852523
P       -5.6302960      7.4163890     -6.7424332
O       -5.5705751      8.9891854     -6.4048311
C       -6.2519903      9.6228578     -5.2939007
X       -5.8067367      8.9260505     -4.0370419
X       -4.7461366      6.8569380     -3.6288129
X       -3.0847641      5.2928063     -4.9853507
X       -2.0638314      3.6583709     -3.9170013
P       -2.9631045     11.2832646     -3.1324695
O       -2.5017725     11.0916131     -1.6007377
C       -1.3694306     11.7818983     -1.0117533
X       -1.4196867     12.1356376      0.4594122
X       -3.1441769     12.5730747      1.9673323
X       -6.1496850     12.6525345      1.9931359
P        0.0043692      8.6407197      1.6886135
O        0.1953736      8.5208996      3.2910129
C       -0.5554348      9.3377066      4.2084583
X       -0.8209388      8.6343431      5.5216477
X       -1.2142959      6.4245052      6.1809213
X       -0.8087609      4.3702345      4.5673658
X       -0.0136067      2.5150615      5.4811472
P        2.3591481      9.3357665      7.4783164
O        2.3609777      8.7067635      8.9640391
C        2.7298412      9.4668720     10.1031076
X        2.9686696      8.6327397     11.3450450
X        2.3567950      6.5182421     12.1326133
X        2.0451957      4.5663714     10.4016345
X        2.7078476      2.4149932     11.3170783
P        6.5422043      7.7353452     10.6585042
O        6.8875429      6.2514651     11.1671659
C        7.8794203      5.4658680     10.5211441
X        7.4115175      5.1959110      9.1100894
X        7.8647422      6.1159231      7.0082036
X       10.2416306      7.7312198      6.1627680
P        9.1640841      1.8169531      8.7022366
O        9.6832727      1.6583176      7.1993606
C       10.8532971      0.9717093      6.7408760
X       10.8080623      0.8607485      5.2230731
X       11.6368339      2.1059204      3.4149368
X       13.8913893      4.0534906      3.0432163
P       13.3276202     -2.0095756      4.8886781
O       13.8640617     -2.0976819      3.3910842
C       13.0930950     -2.6831623      2.3389882
X       13.7230119     -2.4075304      0.9841114
X       15.2912327     -0.8717189      0.1552985
X       17.1745529      0.1318664      1.6787165
X       18.9257620      1.2450732      0.3754179
   142
  Step:          750 Total energy:    2387.0937303062301      Temperature:   0.61600000000000055     
O       -6.5215840     -3.5688507     -9.1725271
C       -6.6916787     -4.1894275    -10.4499479
X       -6.2499365     -3.2418059    -11.5556852
X       -5.7087160     -0.9671021    -11.6858230
X       -4.6338970      0.4071981     -9.7295892
X       -3.3517608      2.2844767    -10.6618903
P       -2.6588403     -4.4666904    -11.9668394
O       -1.6534403     -3.3007220    -12.3695015
C       -1.2240549     -3.1014611    -13.7079931
X       -0.0002621     -2.2016593    -13.7477321
X        0.6570122     -0.2391934    -12.6485802
X       -0.3085283      0.4072568    -10.3150127
X        0.9443249      2.3546187     -9.5346516
P        2.7626834     -4.7818444    -13.1301218
O        3.4620142     -4.5355620    -11.7361906
C        4.1199983     -3.3142679    -11.4212759
X        4.6044776     -3.3031951     -9.9828880
X        4.1078420     -4.5535695     -8.0689858
X        3.2211261     -7.0093946     -8.3193961
X        3.3663423     -8.2151316     -6.1868469
P        8.1659391     -4.4704877    -10.6021948
O        9.1181849     -4.1974162     -9.3174436
C       10.2856624     -4.9428617     -9.0381406
X       11.0864185     -4.4329000     -7.8529403
X       11.1048444     -2.4993458     -6.5291675
X        8.9177525     -1.1276724     -6.1482191
X        9.0885901      0.1089988     -4.0561559
P        9.7688658     -6.7783259     -5.1810411
O        9.8081290     -6.0685349     -3.7540792
C       11.0090947     -5.8171811     -3.0254407
X       10.7636934     -5.2513502     -1.6393723
X        8.9796152     -4.2376843     -0.5206351
X        5.9378548     -4.2160511     -0.9404247
P       11.2525611     -8.4133392      0.5073756
O       10.5871033     -8.1754560      1.9327123
C        9.3711582     -8.8174616      2.3431491
X        9.6142746     -9.7813632      3.5032485
X       11.5077389    -10.7186434      4.5224514
X       13.8748204     -9.5943490      4.4786620
X       15.2188745    -10.2981449      6.4128575
P        8.9490712     -7.3248066      6.2554945
O        8.9813592     -7.9641044      7.7211878
C        8.5462970     -9.2532497      8.0742738
X        8.0947544     -9.2364502      9.5270382
X        8.4680228     -7.8091079     11.3505593
X        8.8470532     -5.2196752     11.1946785
X        7.6492591     -4.0485695     12.9745892
P        4.4237843     -8.3411316      9.1403051
O        3.9056032     -7.5486918     10.4513968
C        3.1739221     -8.1191260     11.5583039
X        2.3791100     -7.0810815     12.3571206
X        2.2917872     -4.7461158     12.5307275
X        3.0800058     -2.5811378     10.6050487
P       -0.9392125     -7.3444549     10.4266340
O       -1.7291747     -5.9669195     10.4978439
C       -2.9735047     -5.8741712     11.1821620
X       -3.5887887     -4.4907944     10.9875574
X       -2.9610306     -2.5201619      9.8843664
X       -1.1964924     -1.8295731      7.4822908
P       -6.3169233     -5.3747092      8.4381961
O       -7.1042735     -4.1070918      7.8307710
C       -8.3395993     -3.6954217      8.4512123
X       -8.9176439     -2.4529630      7.7715038
X       -8.1713430     -0.8572161      6.1940581
X       -6.1326760     -1.0129227      3.9984117
P      -11.5372808     -4.3431076      5.6846511
O      -11.3564557     -4.0418881      4.1239359
C      -11.5299523     -2.7643768      3.5139209
X      -11.7268149     -2.8419231      2.0200336
X      -11.2198428     -4.4769558      0.4219018
X      -10.7944287     -7.4396248      0.5739734
P      -15.5877655     -2.0631231      2.2083062
O      -16.0474135     -0.8917093      1.2239273
C      -16.7539417     -1.1002500     -0.0113366
X      -16.9124112      0.1705435     -0.7785012
X      -17.3083330      2.3388715     -0.1125977
X      -17.0379799      3.6412469      2.5455411
P      -13.5806128      0.0073639     -2.7942081
O      -13.8060025     -0.1964225     -4.3642801
C      -12.9473603      0.4427977     -5.3187844
X      -13.0927731     -0.1358397     -6.6894006
X      -13.6002787     -2.2602256     -7.5641729
X      -15.1682026     -4.6447163     -6.6306737
P      -15.3397637      2.5576022     -8.1962307
O      -14.6404609      3.3153046     -9.4252088
C      -13.6504515      2.7099003    -10.2757359
X      -12.8512775      3.6824720    -11.0482566
X      -13.2576507      5.8929422    -11.6811508
X      -14.6839521      8.3259171    -10.4058636
P      -10.0819801      4.4533659     -8.5596415
O       -9.1928770      5.6667072     -9.0463093
C       -7.9103105      5.4070636     -9.6702586
X       -7.1666843      6.6473670    -10.1269521
X       -7.6323796      8.6568669    -11.1986005
X       -9.9913000      9.7969214    -11.2069589
X       -9.9883128     11.9433779    -11.6357852
P       -5.6180700      7.4336702     -6.7009553
O       -5.5354941      8.9787437     -6.3654861
C       -6.2042234      9.5810745     -5.2570306
X       -5.7588118      8.8861018     -3.9849053
X       -4.5915990      6.9034320     -3.4937017
X       -3.0770896      5.3222610     -4.9574330
X       -2.0884795      3.6740073     -3.9238353
P       -2.9520070     11.2725873     -3.1093892
O       -2.4046297     11.0772347     -1.6362605
C       -1.3302006     11.8975804     -1.0852706
X       -1.4951322     11.8933455      0.4727690
X       -3.0977054     12.5753814      2.0968838
X       -6.1165862     12.6958470      1.9770806
P       -0.0335974      8.5889234      1.6810387
O        0.1454793      8.5748796      3.2566753
C       -0.6111709      9.3932225      4.1586491
X       -0.8299635      8.6449862      5.4729709
X       -1.2694323      6.4328701      6.0980456
X       -0.8302462      4.3618313      4.5518004
X        0.0002731      2.5604735      5.4195918
P        2.3864717      9.3763214      7.4102430
O        2.3168557      8.7538424      8.8902398
C        2.7129083      9.4530954     10.0922155
X        2.9340779      8.6175266     11.3716181
X        2.4016695      6.4851556     12.1665953
X        2.0485607      4.5763936     10.4183864
X        2.6955689      2.3949202     11.2983477
P        6.5405176      7.7107420     10.6759066
O        6.8829539      6.2679743     11.2224470
C        7.7906695      5.4074669     10.5309119
X        7.3900200      5.1585853      9.0797490
X        7.8871847      6.1079919      6.9927351
X       10.2506326      7.7563412      6.1342406
P        9.2245771      1.8385208      8.6467259
O        9.6843759      1.6207108      7.1433870
C       10.8799276      0.9586461      6.7395594
X       10.8147773      0.8433517      5.2328220
X       11.6055131      2.1250901      3.4300446
X       13.9008624      4.0352738      3.0466217
P       13.2993138     -1.9958396      4.8952543
O       13.8024240     -2.0788355      3.3848846
C       13.0217916     -2.6312730      2.3255130
X       13.7385135     -2.4271583      1.0011687
X       15.3131428     -0.8951508      0.1833332
X       17.1775992      0.1317078      1.7108918
X       18.9133142      1.2371083      0.3778478
   142
  Step:          775 Total energy:    2403.4337141588226      Temperature:   0.61600000000000021     
O       -6.4820585     -3.5619230     -9.1658907
C       -6.7217507     -4.1673662    -10.4357640
X       -6.2864893     -3.2182286    -11.5356479
X       -5.7831153     -0.9337275    -11.6495690
X       -4.6071907      0.4301845     -9.7438881
X       -3.3343400      2.3040325    -10.6615560
P       -2.6596001     -4.4730651    -11.8972461
O       -1.6743735     -3.3069766    -12.3751894
C       -1.2321081     -3.1388727    -13.7252613
X       -0.0275073     -2.2256842    -13.7416767
X        0.6429926     -0.2731368    -12.6424457
X       -0.3318645      0.4646117    -10.3195555
X        0.9554059      2.3824224     -9.5169035
P        2.7402795     -4.7881098    -13.1378890
O        3.4700894     -4.5431687    -11.7325407
C        4.0947188     -3.2825585    -11.4417279
X        4.5974550     -3.2765330    -10.0159381
X        4.1236287     -4.5436774     -8.1019767
X        3.2147707     -6.9944973     -8.3053603
X        3.3840404     -8.2203939     -6.2043421
P        8.2018514     -4.4595203    -10.6262333
O        9.0680534     -4.2506475     -9.3151735
C       10.2834400     -5.0002402     -9.0716567
X       11.0932324     -4.4628873     -7.8630190
X       11.0525951     -2.5134462     -6.5445040
X        8.8945554     -1.1120529     -6.1324663
X        9.0976510      0.1265167     -4.0358362
P        9.7799661     -6.7228399     -5.1844661
O        9.7972255     -6.0263587     -3.7419417
C       11.0438896     -5.8362132     -3.0317952
X       10.8084821     -5.2088355     -1.6437943
X        8.9988047     -4.1984282     -0.5492625
X        5.9755228     -4.2453880     -0.9208480
P       11.2702085     -8.3609212      0.4762545
O       10.5562234     -8.1469442      1.8955121
C        9.3725555     -8.8499677      2.3172896
X        9.6442901     -9.7847958      3.5122232
X       11.5098936    -10.7600801      4.5296525
X       13.8589146     -9.6107794      4.5054016
X       15.1948067    -10.2996130      6.4294481
P        8.8859887     -7.2922186      6.2460634
O        8.9757493     -7.9595951      7.6893685
C        8.5385102     -9.2703839      8.0459140
X        8.1482717     -9.2350670      9.5140582
X        8.4391752     -7.8010207     11.3434523
X        8.8767559     -5.2228397     11.1986692
X        7.6223046     -4.0516349     12.9560018
P        4.4217720     -8.4199455      9.2315237
O        3.8882426     -7.5626882     10.4698636
C        3.1344401     -8.1387563     11.5446719
X        2.3217331     -7.1313669     12.3376778
X        2.3659076     -4.7986742     12.5068384
X        3.1238240     -2.5784474     10.6248599
P       -0.8883204     -7.3736262     10.4164005
O       -1.7760947     -6.0549073     10.5025278
C       -2.9986223     -5.8858991     11.2315584
X       -3.5869160     -4.4959313     10.9893217
X       -2.9306058     -2.5235968      9.9027860
X       -1.1620526     -1.8602265      7.4902638
P       -6.3092880     -5.3711893      8.3744812
O       -7.1152985     -4.1236844      7.8030025
C       -8.2640058     -3.5997812      8.4663043
X       -8.8981751     -2.4225477      7.7627863
X       -8.1508080     -0.8992273      6.1748357
X       -6.1251941     -1.0312888      3.9560136
P      -11.5099713     -4.3411357      5.6962033
O      -11.3705990     -4.0109358      4.1335459
C      -11.5383378     -2.7192927      3.5436234
X      -11.7543686     -2.8203801      2.0304580
X      -11.2508783     -4.4781968      0.4052078
X      -10.8052724     -7.4527763      0.5833252
P      -15.5436613     -2.0949123      2.1784377
O      -16.0345366     -0.9209570      1.2162218
C      -16.7252020     -1.1954278     -0.0132930
X      -16.9008705      0.1312576     -0.8080484
X      -17.3879057      2.3993932     -0.2303758
X      -17.0623775      3.6525769      2.5254483
P      -13.5522383     -0.0129476     -2.7908260
O      -13.7769074     -0.2039076     -4.3330476
C      -12.9472223      0.4672253     -5.2765102
X      -13.1477445     -0.1297421     -6.6487024
X      -13.7318631     -2.2189245     -7.5556727
X      -15.1833076     -4.6580026     -6.6173632
P      -15.3592331      2.5690189     -8.1701537
O      -14.5814357      3.2786598     -9.3697685
C      -13.6361874      2.6218246    -10.2324708
X      -12.9301909      3.6992820    -11.1165657
X      -13.2419275      5.9718796    -11.7168692
X      -14.6825819      8.3046992    -10.3975257
P      -10.1506056      4.4819104     -8.5790206
O       -9.1427350      5.6453294     -9.0761664
C       -7.8700251      5.4176709     -9.7523340
X       -7.0935585      6.6625955    -10.1400253
X       -7.5904620      8.7240154    -11.1986023
X      -10.0194573      9.7781433    -11.2105483
X       -9.9905140     11.9171632    -11.6845245
P       -5.5958903      7.4412353     -6.6466623
O       -5.5107502      9.0189083     -6.3990663
C       -6.1786575      9.4758189     -5.2278314
X       -5.6558903      8.8306761     -3.9280815
X       -4.5339782      6.8590552     -3.3194499
X       -3.0588909      5.3711675     -4.9204825
X       -2.1145725      3.6935156     -3.9279402
P       -2.9084529     11.2926375     -3.1012032
O       -2.3544492     11.0595788     -1.6340295
C       -1.3775265     11.8180290     -0.9702101
X       -1.5803154     11.8146058      0.4921937
X       -3.1266008     12.5416823      2.0120152
X       -6.0701010     12.7435732      1.9606428
P       -0.0664348      8.5478904      1.6483234
O        0.1021087      8.5639281      3.2382949
C       -0.5597664      9.4149238      4.1754985
X       -0.8700243      8.6701775      5.4641449
X       -1.3194302      6.4488936      6.0555405
X       -0.8711073      4.3585204      4.5127242
X        0.0377306      2.5969926      5.3681400
P        2.4062289      9.4136413      7.3840662
O        2.3103128      8.7572959      8.8503998
C        2.6505804      9.4973782     10.0561619
X        2.9023190      8.6525725     11.3250650
X        2.4403934      6.5068345     12.1545070
X        2.0353682      4.5880893     10.4286316
X        2.6848599      2.3609710     11.2837468
P        6.5541841      7.7117865     10.6918132
O        6.8804552      6.2438086     11.2418668
C        7.7556429      5.3380571     10.5317547
X        7.3598385      5.1076504      9.0673312
X        7.9266095      6.1132348      7.0206242
X       10.2616908      7.7833235      6.1044937
P        9.2946801      1.8627760      8.6144717
O        9.6300326      1.5919963      7.0883805
C       10.8674676      0.9869030      6.7272976
X       10.8599119      0.8616861      5.2274202
X       11.6065250      2.1324949      3.4154488
X       13.9074372      4.0156804      3.0538357
P       13.2685400     -1.9894119      4.8939205
O       13.7715754     -2.0782215      3.3817524
C       12.9710310     -2.5875926      2.3124364
X       13.7389217     -2.4401300      1.0097203
X       15.3436550     -0.9331399      0.2122892
X       17.1842030      0.1367218      1.7446633
X       18.8996240      1.2291304      0.3824943
   142
  Step:          800 Total energy:    2390.2862286519844      Temperature:   0.61600000000000044     
O       -6.4449182     -3.5675620     -9.1370678
C       -6.7327307     -4.1412874    -10.4157223
X       -6.2972691     -3.1970276    -11.5225766
X       -5.7840117     -0.9131675    -11.6467702
X       -4.5956030      0.4555165     -9.7505759
X       -3.3133876      2.3306571    -10.6609557
P       -2.6772467     -4.4700042    -11.8316484
O       -1.7188277     -3.3199499    -12.3643028
C       -1.2293558     -3.2060090    -13.7215971
X       -0.0335698     -2.2568801    -13.7601486
X        0.5619574     -0.2858734    -12.6508747
X       -0.3477100      0.5229222    -10.3237610
X        0.9694517      2.4166222     -9.4903567
P        2.7167309     -4.8090288    -13.1310530
O        3.4693044     -4.4974397    -11.7732003
C        4.0924746     -3.2456395    -11.4622748
X        4.6146778     -3.2713036    -10.0328921
X        4.1067925     -4.5174578     -8.1072694
X        3.2119356     -6.9741001     -8.3039724
X        3.4026666     -8.2283533     -6.2049766
P        8.2245576     -4.4388072    -10.6361224
O        9.0770767     -4.3185954     -9.2882802
C       10.3076592     -5.0346581     -9.0821293
X       11.0729832     -4.4569366     -7.9379087
X       11.0257782     -2.5404417     -6.6191317
X        8.8714286     -1.0964813     -6.1171647
X        9.1049651      0.1526788     -4.0061438
P        9.7644162     -6.6903695     -5.1509115
O        9.8415829     -6.0066335     -3.7212958
C       11.0660396     -5.8148013     -3.0355099
X       10.8515950     -5.1827569     -1.6816424
X        9.0682780     -4.1397372     -0.5545779
X        6.0070397     -4.2702981     -0.9085558
P       11.2615756     -8.2951090      0.4603732
O       10.5572457     -8.1659991      1.8830064
C        9.4170420     -8.9118413      2.2692928
X        9.6553403     -9.7786009      3.4838436
X       11.4892222    -10.7968421      4.5041361
X       13.8456053     -9.6196715      4.5259503
X       15.1785919    -10.3023183      6.4573130
P        8.8262711     -7.2657382      6.2645249
O        9.0096231     -7.9097381      7.6919240
C        8.4718481     -9.2160775      8.0453452
X        8.1663149     -9.2826378      9.5355367
X        8.4974643     -7.8176147     11.3359580
X        8.8969316     -5.2183162     11.2098426
X        7.6025857     -4.0545044     12.9346528
P        4.4182147     -8.4879273      9.3202079
O        3.8427160     -7.5916047     10.4945660
C        3.0766116     -8.2249927     11.4991674
X        2.4042727     -7.1486996     12.3388423
X        2.3244777     -4.7926056     12.4854414
X        3.1694973     -2.5755314     10.6478666
P       -0.8835080     -7.4164724     10.3965954
O       -1.7946694     -6.0802688     10.4682056
C       -3.0238776     -5.8866667     11.2161852
X       -3.6132983     -4.4946927     11.0066788
X       -2.9101697     -2.5398413      9.9139056
X       -1.1263038     -1.8899538      7.5014582
P       -6.2894496     -5.3889717      8.3139771
O       -7.1042992     -4.0975607      7.8330770
C       -8.2342711     -3.5783760      8.5339137
X       -8.8425996     -2.4037653      7.7532881
X       -8.1621867     -0.8746144      6.1167643
X       -6.1140873     -1.0485741      3.9150592
P      -11.4624585     -4.3196715      5.6997839
O      -11.4283535     -3.9880449      4.1393916
C      -11.5089258     -2.6852254      3.5559711
X      -11.7734669     -2.8307170      2.0679487
X      -11.3465443     -4.4912442      0.4567758
X      -10.8160944     -7.4526029      0.5946196
P      -15.5077305     -2.1418437      2.1575247
O      -15.9769210     -0.9667081      1.1595216
C      -16.6821211     -1.1520056     -0.0587292
X      -16.8711485      0.1443106     -0.8011149
X      -17.3656904      2.3119141     -0.1545768
X      -17.0866850      3.6573508      2.4836070
P      -13.5511996     -0.0276749     -2.7163632
O      -13.8003305     -0.1978086     -4.3006434
C      -12.9367309      0.4536711     -5.2347536
X      -13.1415731     -0.1114727     -6.6389711
X      -13.8307982     -2.1590578     -7.5832205
X      -15.2011674     -4.6715686     -6.5986264
P      -15.3676054      2.5713165     -8.1539524
O      -14.5562583      3.3032259     -9.3295307
C      -13.6621862      2.6935971    -10.2421859
X      -12.9653887      3.7008459    -11.1535814
X      -13.2299392      5.9499615    -11.7005670
X      -14.6818577      8.2856967    -10.3867486
P      -10.1654262      4.5415140     -8.6160981
O       -9.1218119      5.6236320     -9.1771376
C       -7.8446283      5.3856530     -9.7811657
X       -7.0894307      6.6685101    -10.0981063
X       -7.6484325      8.7128640    -11.1215696
X      -10.0130090      9.7819987    -11.2171234
X      -10.0070255     11.8792691    -11.7252273
P       -5.5666396      7.4356033     -6.6503742
O       -5.5145750      8.9743690     -6.3310416
C       -6.1165315      9.4572924     -5.1589575
X       -5.5912410      8.7890903     -3.9044568
X       -4.5661580      6.8082318     -3.2361027
X       -3.0410105      5.4402760     -4.8741362
X       -2.1232414      3.6942418     -3.9241440
P       -2.8499007     11.3311838     -3.1109991
O       -2.4140332     10.9755572     -1.5999207
C       -1.3494340     11.6846050     -1.0267986
X       -1.4581619     11.8749810      0.4868836
X       -3.0463243     12.5442973      2.1299740
X       -6.0651034     12.7973627      1.9444534
P       -0.0926765      8.5187669      1.6355358
O        0.0837946      8.4528876      3.2515663
C       -0.5050550      9.3791822      4.1816563
X       -0.8453174      8.7012807      5.4910913
X       -1.3519728      6.4758821      6.0229048
X       -0.9334087      4.3756687      4.4594400
X        0.0990142      2.6171958      5.3335951
P        2.3843807      9.4232268      7.3948531
O        2.3688685      8.7567714      8.8430292
C        2.5938096      9.5263043     10.0180998
X        2.9107797      8.7158812     11.2449599
X        2.4270785      6.5832638     12.0806945
X        2.0211898      4.5661735     10.4446388
X        2.6668662      2.3555996     11.2644219
P        6.5768113      7.7155278     10.7109061
O        6.8529848      6.2145429     11.1738394
C        7.7339738      5.2959790     10.5371605
X        7.3637112      5.1077968      9.0864690
X        7.9787222      6.1292624      7.0698051
X       10.2694389      7.8071991      6.0804173
P        9.3464630      1.8897599      8.6144985
O        9.5975294      1.5624767      7.0887231
C       10.8659218      1.0606115      6.6957858
X       10.8269178      0.9034155      5.1938119
X       11.6181775      2.0982047      3.3449416
X       13.9187877      4.0042593      3.0642510
P       13.2494460     -2.0014178      4.8847518
O       13.7759073     -2.1127122      3.3898701
C       12.9556698     -2.5720977      2.3140830
X       13.7209503     -2.4295939      1.0127763
X       15.3910519     -0.9869367      0.2368051
X       17.1880912      0.1436927      1.7780061
X       18.8905966      1.2248552      0.3900665
   142
  Step:          825 Total energy:    2373.3351813829681      Temperature:   0.61599999999999955     
O       -6.4190146     -3.5785994     -9.1039318
C       -6.7365046     -4.1162727    -10.3913557
X       -6.2853280     -3.1783503    -11.5010643
X       -5.7068138     -0.9129101    -11.6768672
X       -4.6021735      0.4840700     -9.7527458
X       -3.2952101      2.3590585    -10.6628083
P       -2.7156315     -4.4556687    -11.7847705
O       -1.7385349     -3.3260770    -12.3569604
C       -1.2326585     -3.2855255    -13.6976068
X       -0.0795439     -2.2924149    -13.7594799
X        0.4524367     -0.2688805    -12.6835858
X       -0.3595578      0.5804504    -10.3282606
X        0.9817519      2.4479124     -9.4669780
P        2.6917048     -4.8285509    -13.1275349
O        3.4817685     -4.4580926    -11.7845775
C        4.1400646     -3.2275345    -11.4775818
X        4.6260891     -3.2623029    -10.0364115
X        4.0763775     -4.4915224     -8.1164175
X        3.2090724     -6.9582917     -8.3044577
X        3.4175790     -8.2296119     -6.2061173
P        8.2261745     -4.4128023    -10.6360640
O        9.0677349     -4.3726609     -9.2938284
C       10.3161005     -5.0622844     -9.1339596
X       11.0861654     -4.4730056     -7.9594149
X       10.9775410     -2.4864544     -6.7153687
X        8.8509971     -1.0756466     -6.0866546
X        9.1078986      0.1703858     -3.9941996
P        9.7281208     -6.6906400     -5.1289011
O        9.8734120     -5.9761356     -3.7013968
C       11.1146230     -5.7491319     -3.0355495
X       10.8817535     -5.1105014     -1.6865146
X        9.0637959     -4.1431434     -0.5863286
X        6.0407542     -4.2867493     -0.9123399
P       11.2502577     -8.2507747      0.4407837
O       10.5891593     -8.1627076      1.8975816
C        9.4096972     -8.9199689      2.2202834
X        9.6357906     -9.8012122      3.4579239
X       11.4992224    -10.7934258      4.4978599
X       13.8294074     -9.6267152      4.5374125
X       15.1633011    -10.3073350      6.4905148
P        8.7867734     -7.2626635      6.3015144
O        9.0121011     -7.9097473      7.7431334
C        8.4380468     -9.1835553      8.0733527
X        8.1395766     -9.2283374      9.5495685
X        8.6323195     -7.8305868     11.3624461
X        8.9050008     -5.2244510     11.2187107
X        7.5826989     -4.0568433     12.9132387
P        4.4200723     -8.5655076      9.3435726
O        3.8603833     -7.6370422     10.5040356
C        3.1300550     -8.2042846     11.5977444
X        2.3316251     -7.1626535     12.3557518
X        2.3401266     -4.8283040     12.4463335
X        3.2088609     -2.5744228     10.6707482
P       -0.9434232     -7.4284647     10.3864343
O       -1.7804352     -6.0838149     10.4323596
C       -3.0097723     -5.9255026     11.1512704
X       -3.6087231     -4.5294418     10.9691784
X       -2.9230974     -2.5513046      9.8947292
X       -1.0955346     -1.9209564      7.5164665
P       -6.2552799     -5.3990050      8.2830244
O       -7.0543918     -4.0773999      7.8601780
C       -8.2184533     -3.5583776      8.5213999
X       -8.8152985     -2.3601859      7.7603794
X       -8.1227139     -0.8827580      6.0810831
X       -6.1058357     -1.0653539      3.8754829
P      -11.4187142     -4.3000116      5.7145070
O      -11.4738749     -3.9799796      4.1600757
C      -11.4995870     -2.6800314      3.5637753
X      -11.7538376     -2.8252156      2.0847655
X      -11.4554876     -4.5135956      0.5152791
X      -10.8257106     -7.4525035      0.6053523
P      -15.5167836     -2.1774861      2.1248197
O      -15.9100799     -0.9797763      1.1372598
C      -16.6397078     -1.2189703     -0.0640935
X      -16.8301756      0.0777142     -0.8241831
X      -17.3643437      2.2889405     -0.2230634
X      -17.1105738      3.6717617      2.4562870
P      -13.5694500     -0.0375380     -2.6555951
O      -13.7960786     -0.1564712     -4.2275414
C      -12.9332020      0.3891923     -5.2158602
X      -13.1560467     -0.1520936     -6.6299074
X      -13.8776055     -2.1601210     -7.5402673
X      -15.2189998     -4.6705020     -6.5835340
P      -15.3577280      2.5741083     -8.1538941
O      -14.5943340      3.3979021     -9.3150656
C      -13.7555030      2.7425702    -10.2650885
X      -12.9200536      3.6833660    -11.1011272
X      -13.2274884      5.9068667    -11.7585863
X      -14.6878910      8.2742431    -10.3724209
P      -10.1468083      4.5950657     -8.6782394
O       -9.1501013      5.6608015     -9.3128796
C       -7.8374203      5.3183168     -9.6963520
X       -7.1138417      6.6106554    -10.0672066
X       -7.6171251      8.6927515    -11.0471533
X      -10.0170730      9.7699202    -11.2165163
X      -10.0369283     11.8764692    -11.7722714
P       -5.5401869      7.3737685     -6.6824315
O       -5.4772384      8.9311968     -6.2935813
C       -6.1151610      9.5006629     -5.1271242
X       -5.6459057      8.8300620     -3.8338191
X       -4.6434891      6.7952866     -3.2299268
X       -3.0078281      5.4794911     -4.8169965
X       -2.1284208      3.6983026     -3.9302082
P       -2.8285326     11.3028698     -3.0884809
O       -2.4345422     11.0601195     -1.5644145
C       -1.2566593     11.6700331     -0.9904712
X       -1.3402549     11.9315535      0.5412601
X       -3.0753287     12.5962011      1.9909514
X       -6.0526057     12.8491362      1.9293758
P       -0.1074484      8.4874716      1.6795208
O        0.0357522      8.3455990      3.2351712
C       -0.4199632      9.3442960      4.1532368
X       -0.7929578      8.6490509      5.4610648
X       -1.3753751      6.4385012      6.0033727
X       -0.9790340      4.3628203      4.4414439
X        0.1375217      2.6841809      5.2764274
P        2.3531990      9.4192950      7.4016540
O        2.4157501      8.7369728      8.8377627
C        2.6602123      9.5835738      9.9629614
X        2.9125063      8.7635428     11.2302225
X        2.3753066      6.6013734     12.0072959
X        1.9933824      4.5514188     10.4414813
X        2.6490948      2.3507336     11.2568701
P        6.6011346      7.7304660     10.7079392
O        6.7611130      6.1962917     11.1532928
C        7.7316149      5.3317326     10.5587206
X        7.4157272      5.1006522      9.0866984
X        7.9901650      6.1558328      7.0654383
X       10.2755400      7.8289503      6.0588733
P        9.3697814      1.9146520      8.6540707
O        9.5974659      1.5567125      7.1195616
C       10.8622589      1.1457424      6.6088398
X       10.7776695      0.9218008      5.1105409
X       11.6304170      2.0636778      3.2526729
X       13.9294943      3.9964846      3.0740695
P       13.2287793     -2.0192458      4.8848861
O       13.7847178     -2.1575412      3.3973620
C       12.9463119     -2.5698532      2.3145086
X       13.7062653     -2.4224536      1.0116280
X       15.4266006     -1.0241848      0.2536634
X       17.1866849      0.1491917      1.8038119
X       18.8839941      1.2234230      0.4001196
   142
  Step:          850 Total energy:    2398.1684006349078      Temperature:   0.61599999999999977     
O       -6.4039038     -3.5769934     -9.0681716
C       -6.7486366     -4.0793315    -10.3624772
X       -6.2671398     -3.1659618    -11.4813357
X       -5.6302025     -0.9200570    -11.6934327
X       -4.6080481      0.5240441     -9.7579881
X       -3.2875759      2.3761807    -10.6576533
P       -2.7467816     -4.4455308    -11.7554952
O       -1.7501920     -3.3444999    -12.3308787
C       -1.2719883     -3.3197044    -13.6573239
X       -0.1415438     -2.3190039    -13.7346522
X        0.3451013     -0.2555349    -12.7038401
X       -0.3716671      0.6325753    -10.3346531
X        0.9959773      2.4725916     -9.4525224
P        2.6847738     -4.8185111    -13.1070394
O        3.4956927     -4.4726088    -11.7699992
C        4.1749702     -3.2440593    -11.4979726
X        4.6340117     -3.2296111    -10.0390874
X        4.0533688     -4.4714887     -8.1297603
X        3.2057066     -6.9569196     -8.2961479
X        3.4296477     -8.2172861     -6.2166581
P        8.2114585     -4.3946789    -10.6436942
O        9.0677440     -4.4086631     -9.2907786
C       10.3072886     -5.0906358     -9.1359924
X       11.0800290     -4.4708852     -7.9467945
X       10.9437396     -2.4252376     -6.7595703
X        8.8273863     -1.0633462     -6.0659087
X        9.1145118      0.1872494     -3.9812843
P        9.7005131     -6.6888413     -5.1092546
O        9.8826290     -5.9615249     -3.7008310
C       11.1608267     -5.6599054     -3.0883463
X       10.9459254     -5.0513698     -1.6783131
X        9.0977251     -4.1077578     -0.5393803
X        6.0590285     -4.2982074     -0.9318944
P       11.2463007     -8.2367762      0.4312116
O       10.5939746     -8.1518561      1.8752556
C        9.4052047     -8.8612381      2.2665766
X        9.6083428     -9.7914791      3.4542849
X       11.4670706    -10.7730229      4.5106972
X       13.8285548     -9.6351422      4.5581658
X       15.1371721    -10.3104841      6.5141351
P        8.7791303     -7.2957992      6.3359798
O        8.9810891     -7.9437400      7.7572463
C        8.4306459     -9.1748492      8.1066024
X        8.1516662     -9.1646728      9.5973337
X        8.7269668     -7.8315932     11.4488197
X        8.9155260     -5.2335413     11.2195800
X        7.5594561     -4.0608730     12.8990891
P        4.4029485     -8.6349599      9.3404779
O        3.8767367     -7.7133044     10.5480465
C        3.1597870     -8.2137165     11.6941425
X        2.2876916     -7.1613077     12.3633538
X        2.2683192     -4.8168044     12.4738988
X        3.2449709     -2.5736442     10.6932581
P       -1.0031218     -7.4534117     10.3779783
O       -1.7802207     -6.0496091     10.3835412
C       -3.0060093     -5.9556363     11.0868640
X       -3.5894859     -4.5766130     10.8939427
X       -2.9451016     -2.5762809      9.8623316
X       -1.0686389     -1.9540163      7.5361686
P       -6.2222588     -5.3809696      8.2868737
O       -7.0051962     -4.0599964      7.8332171
C       -8.1749575     -3.5366130      8.4766189
X       -8.7975478     -2.3561683      7.7691780
X       -8.0570849     -0.8693236      6.1107828
X       -6.0956148     -1.0841133      3.8341241
P      -11.3959050     -4.2989625      5.7544367
O      -11.4677402     -3.9731007      4.1899266
C      -11.4831595     -2.6619680      3.6036691
X      -11.7747062     -2.8006945      2.0969166
X      -11.4723938     -4.5030054      0.4835715
X      -10.8286143     -7.4708280      0.6183498
P      -15.5367805     -2.1932033      2.0988031
O      -15.9527037     -0.9648994      1.1821900
C      -16.6172382     -1.2726161     -0.0603082
X      -16.8749294      0.0293486     -0.8080802
X      -17.3238590      2.2605403     -0.2128876
X      -17.1359190      3.6828420      2.4222615
P      -13.5543905     -0.0327184     -2.6351070
O      -13.7935390     -0.1497259     -4.2227437
C      -12.8710454      0.3839702     -5.1742147
X      -13.1863391     -0.1701735     -6.5798542
X      -13.8194750     -2.2073230     -7.5778761
X      -15.2447256     -4.6705332     -6.5641199
P      -15.3564768      2.6087188     -8.1569152
O      -14.6206143      3.4062581     -9.2905360
C      -13.7116113      2.7116377    -10.1749413
X      -13.0213805      3.7506106    -11.0962848
X      -13.2425966      5.9864900    -11.7246518
X      -14.6888812      8.2484318    -10.3663637
P      -10.1395376      4.6176626     -8.7224603
O       -9.2139836      5.7067850     -9.4168432
C       -7.8471403      5.3503734     -9.6593716
X       -7.0561607      6.5757466    -10.0635321
X       -7.6393954      8.5994402    -11.0069738
X      -10.0134828      9.7603311    -11.2086139
X      -10.0748170     11.8751847    -11.8164700
P       -5.5122474      7.3209114     -6.6690322
O       -5.4491592      8.8605461     -6.2868343
C       -6.1190860      9.4791223     -5.1597620
X       -5.7588884      8.8762246     -3.8193724
X       -4.6860342      6.8664299     -3.2576571
X       -2.9843734      5.5093111     -4.7549932
X       -2.1237646      3.6918278     -3.9285054
P       -2.8247192     11.2260037     -3.0189484
O       -2.3601061     11.2992031     -1.4789305
C       -1.1042360     11.7318859     -0.9392188
X       -1.3157892     11.9086534      0.5182389
X       -3.0421002     12.7182248      1.8488557
X       -6.0476741     12.9006748      1.9133945
P       -0.1132068      8.4464714      1.6841468
O        0.0298901      8.2451152      3.2742805
C       -0.3865973      9.2733967      4.1709088
X       -0.7636307      8.5692173      5.4325758
X       -1.4182677      6.4031677      6.0261757
X       -1.0185075      4.3512805      4.4294416
X        0.1711568      2.7477914      5.2196328
P        2.3534291      9.4078642      7.3917393
O        2.3950639      8.7593789      8.8484130
C        2.8082977      9.5683906      9.9548857
X        2.9381720      8.7672640     11.2475662
X        2.3104702      6.6229997     11.9900273
X        1.9508528      4.5544130     10.4054319
X        2.6386167      2.3382524     11.2708003
P        6.5822533      7.7392494     10.7102178
O        6.7262232      6.2171657     11.1258662
C        7.7340274      5.3833944     10.5659267
X        7.4548577      5.1580007      9.0879485
X        8.0092213      6.1525404      7.0323856
X       10.2804139      7.8480756      6.0419727
P        9.3988662      1.9111210      8.7021104
O        9.6003377      1.5893885      7.1379933
C       10.8391082      1.1655069      6.5371434
X       10.7798370      0.9445580      5.0236330
X       11.6402276      2.0537562      3.1438193
X       13.9367642      3.9858020      3.0845676
P       13.2010297     -2.0288690      4.8938362
O       13.7645041     -2.2012643      3.4164241
C       12.9342017     -2.5611767      2.3100099
X       13.7196057     -2.4405069      1.0185955
X       15.4263948     -1.0205958      0.2686007
X       17.1835102      0.1510528      1.8193401
X       18.8799358      1.2227736      0.4178291
   142
  Step:          875 Total energy:    2317.1844230520587      Temperature:   0.61600000000000077     
O       -6.3997877     -3.5525376     -9.0464295
C       -6.7652397     -4.0498202    -10.3377163
X       -6.2728767     -3.1469152    -11.4633035
X       -5.6235557     -0.9054903    -11.6914517
X       -4.6126778      0.5530348     -9.7647167
X       -3.2803510      2.3937452    -10.6566935
P       -2.7610687     -4.4735366    -11.7332067
O       -1.7643442     -3.3610997    -12.2736961
C       -1.3291247     -3.3167480    -13.6306113
X       -0.1845747     -2.3196866    -13.7128865
X        0.2995832     -0.2454755    -12.7029564
X       -0.3916777      0.6748453    -10.3430164
X        1.0140506      2.4871271     -9.4562512
P        2.6940444     -4.7941818    -13.0813605
O        3.4966505     -4.4893992    -11.7485488
C        4.1718989     -3.2576410    -11.5014578
X        4.6221486     -3.2310208    -10.0516034
X        4.0456700     -4.4751679     -8.1557597
X        3.2026318     -6.9511694     -8.3069868
X        3.4419982     -8.2067536     -6.2194378
P        8.2069224     -4.3960998    -10.6511052
O        9.0540135     -4.4219379     -9.2870098
C       10.2771677     -5.0837894     -9.0665555
X       11.0343326     -4.4479660     -7.9388585
X       10.9396729     -2.4315265     -6.7505846
X        8.7981550     -1.0622793     -6.0622113
X        9.1258790      0.2014128     -3.9708969
P        9.6974708     -6.6695747     -5.0972404
O        9.9061459     -5.9531340     -3.6789627
C       11.1472421     -5.5760461     -3.0763352
X       10.9307709     -5.0053848     -1.6972190
X        9.1177699     -4.1021075     -0.5435894
X        6.0838350     -4.3098092     -0.9613177
P       11.2463668     -8.2527486      0.4083813
O       10.5817191     -8.1199251      1.8787040
C        9.3790407     -8.7956870      2.3032925
X        9.6030128     -9.7210396      3.4843779
X       11.4371237    -10.7431474      4.5179980
X       13.8258030     -9.6455701      4.5711060
X       15.1093398    -10.3191128      6.5361022
P        8.7820124     -7.3346294      6.3122180
O        8.9987780     -7.9551202      7.7758681
C        8.4420491     -9.2003405      8.1875683
X        8.1709850     -9.2173327      9.6908498
X        8.7392073     -7.8278802     11.4875155
X        8.9255082     -5.2336099     11.2192724
X        7.5407710     -4.0747201     12.8786489
P        4.3756340     -8.6838809      9.3699672
O        3.8465080     -7.7910877     10.5738383
C        3.0946211     -8.2583632     11.6936232
X        2.3063462     -7.1178234     12.3747031
X        2.1799504     -4.7701953     12.4435635
X        3.2734007     -2.5846474     10.7188694
P       -1.0183263     -7.4833427     10.3623647
O       -1.7784197     -6.1022814     10.3124761
C       -3.0097619     -5.9678050     11.0137542
X       -3.6147877     -4.5822887     10.8816301
X       -2.9676930     -2.5868630      9.8512291
X       -1.0399418     -1.9886984      7.5473528
P       -6.2137575     -5.3541557      8.2811147
O       -6.9762522     -4.0438383      7.7782993
C       -8.1401838     -3.5716387      8.4710039
X       -8.7128718     -2.3680338      7.7433199
X       -7.9871013     -0.8412110      6.0976239
X       -6.0882904     -1.1065337      3.7942283
P      -11.3952348     -4.3093922      5.7890815
O      -11.4178514     -3.9477493      4.2269793
C      -11.5125421     -2.6817887      3.5782912
X      -11.7774710     -2.8507593      2.0863278
X      -11.3869509     -4.5479747      0.5265211
X      -10.8341678     -7.4809395      0.6278428
P      -15.5598591     -2.2092275      2.1143323
O      -16.0464734     -0.9935694      1.2098568
C      -16.6970293     -1.2569323     -0.0286643
X      -16.8917672     -0.0053096     -0.8123736
X      -17.3286318      2.1878274     -0.1956864
X      -17.1600200      3.6922971      2.3856443
P      -13.5342182     -0.0192830     -2.6525503
O      -13.7764554     -0.1690141     -4.2125157
C      -12.8913613      0.3524580     -5.2011441
X      -13.1629195     -0.1879678     -6.5895197
X      -13.7725097     -2.2537190     -7.5192491
X      -15.2684206     -4.6656018     -6.5505663
P      -15.3866754      2.6284072     -8.1081108
O      -14.6176450      3.3953537     -9.2811819
C      -13.6875723      2.7696472    -10.1500325
X      -13.0217982      3.7092976    -11.0994265
X      -13.2420602      5.9404674    -11.7963560
X      -14.7020341      8.2385283    -10.3538034
P      -10.1685056      4.6307114     -8.7813379
O       -9.2043928      5.6945045     -9.4467867
C       -7.8300597      5.3379056     -9.6658715
X       -7.0473636      6.5817153    -10.0808477
X       -7.6254557      8.6167333    -11.0878195
X      -10.0099863      9.7714718    -11.2027652
X      -10.1103712     11.8412276    -11.8534728
P       -5.4893088      7.2631907     -6.6154777
O       -5.4311398      8.8379485     -6.2725376
C       -6.1764795      9.4844175     -5.2295528
X       -5.7916537      8.8646543     -3.8920026
X       -4.6639557      6.9086485     -3.2079265
X       -2.9788924      5.5401323     -4.7042850
X       -2.1152090      3.6767148     -3.9126323
P       -2.7802307     11.1665236     -2.9532173
O       -2.3989791     11.4623184     -1.4459909
C       -1.0626887     11.7113065     -0.9953006
X       -1.2302739     11.9516423      0.5065629
X       -3.0098294     12.7798993      1.8711570
X       -6.0807062     12.9766939      1.8812964
P       -0.1011955      8.3672692      1.6823246
O        0.2765029      8.0736379      3.2622838
C       -0.3894438      9.0974902      4.1381784
X       -0.7811379      8.5229607      5.4908909
X       -1.4903448      6.3684765      6.0769128
X       -1.0664549      4.3688465      4.3961389
X        0.2184297      2.7633616      5.1774790
P        2.3822664      9.3839421      7.3797160
O        2.3544054      8.8112171      8.8710828
C        2.8798362      9.5418006      9.9831748
X        2.9854394      8.7143487     11.2463651
X        2.2408442      6.6170478     11.9580569
X        1.9149939      4.5380528     10.3648599
X        2.6214603      2.3610333     11.2789748
P        6.5336167      7.7535876     10.7152914
O        6.7643043      6.2275869     11.1241734
C        7.7985440      5.4478572     10.5253629
X        7.4600861      5.1846181      9.0764113
X        8.0345196      6.1378959      7.0189933
X       10.2862542      7.8636384      6.0233297
P        9.4353009      1.8960511      8.6972047
O        9.6208617      1.6208180      7.1259964
C       10.8392224      1.1664979      6.5071292
X       10.7743393      0.9561155      4.9882878
X       11.6290047      2.0530591      3.0891167
X       13.9434785      3.9714300      3.0894260
P       13.1622149     -2.0322802      4.9019811
O       13.7353665     -2.2435011      3.4287707
C       12.9181370     -2.5712564      2.3037405
X       13.7484103     -2.4659807      1.0389341
X       15.4060554     -1.0016363      0.2675552
X       17.1766042      0.1465306      1.8234004
X       18.8811647      1.2217165      0.4356712
   142
  Step:          900 Total energy:    2301.1823321985617      Temperature:   0.61600000000000010     
O       -6.4080487     -3.5041832     -9.0427174
C       -6.7793375     -4.0266170    -10.3202589
X       -6.2972844     -3.1233239    -11.4463552
X       -5.6953309     -0.8669803    -11.6783183
X       -4.6148803      0.5657895     -9.7645185
X       -3.2710108      2.4188008    -10.6609082
P       -2.7624916     -4.5180989    -11.7150253
O       -1.7689764     -3.3867429    -12.2284118
C       -1.3433333     -3.2782722    -13.5979190
X       -0.1994333     -2.2856209    -13.6853339
X        0.3408718     -0.2267275    -12.6899906
X       -0.4132951      0.7058547    -10.3455565
X        1.0314395      2.4928082     -9.4765303
P        2.6939526     -4.7759173    -13.0812723
O        3.4763432     -4.4670459    -11.7271390
C        4.1458076     -3.2284860    -11.4930210
X        4.6217136     -3.2432642    -10.0594638
X        4.0596176     -4.4666856     -8.1326947
X        3.1999712     -6.9471668     -8.3263091
X        3.4521370     -8.1907359     -6.2180286
P        8.2128918     -4.4108429    -10.6498262
O        8.9929547     -4.3699044     -9.2711251
C       10.2366324     -5.0709146     -9.0621413
X       11.0147488     -4.4453555     -7.8982656
X       10.9259830     -2.4300688     -6.6963037
X        8.7783174     -1.0545349     -6.0516563
X        9.1346325      0.2062112     -3.9817768
P        9.7219752     -6.6355072     -5.0847371
O        9.8835135     -5.9432495     -3.6551744
C       11.1425848     -5.5712371     -3.0877393
X       10.9179047     -5.0092066     -1.6871592
X        9.1162258     -4.0557779     -0.5357945
X        6.1009067     -4.3141735     -0.9905172
P       11.2239517     -8.2567021      0.4053104
O       10.5978866     -8.0899158      1.8514659
C        9.3857443     -8.7230309      2.2899922
X        9.6089019     -9.6765944      3.4843335
X       11.4356483    -10.7106625      4.5218187
X       13.8204877     -9.6459618      4.5693505
X       15.0910124    -10.3269740      6.5598821
P        8.7831860     -7.3472216      6.3237049
O        9.0127553     -7.9849785      7.7707579
C        8.4896301     -9.2543146      8.2286251
X        8.1836558     -9.2618453      9.7272544
X        8.6738110     -7.8326860     11.5115612
X        8.9335136     -5.2244766     11.2194127
X        7.5293711     -4.0831928     12.8615009
P        4.3759048     -8.7222182      9.4177254
O        3.7957002     -7.7490296     10.5609565
C        3.0609987     -8.2154951     11.7006793
X        2.1920856     -7.1509600     12.3671822
X        2.2127313     -4.8094493     12.4471735
X        3.2923761     -2.5862986     10.7339174
P       -0.9706404     -7.5140471     10.3519385
O       -1.8234679     -6.1501283     10.2589920
C       -3.0388067     -5.9695717     11.0168298
X       -3.6095925     -4.5569317     10.8931124
X       -2.9568506     -2.5568372      9.8611795
X       -1.0182196     -2.0113714      7.5523393
P       -6.2200947     -5.3516824      8.2491072
O       -6.9486812     -4.0526878      7.7482783
C       -8.0912594     -3.5524707      8.4400086
X       -8.6843234     -2.3579481      7.7236049
X       -7.9574704     -0.8635851      6.0802038
X       -6.0808821     -1.1207660      3.7633557
P      -11.3942438     -4.2825270      5.8016635
O      -11.3754251     -3.9804932      4.2255083
C      -11.5421617     -2.7020558      3.6156385
X      -11.7818121     -2.8454248      2.1185045
X      -11.3103046     -4.5075407      0.4890899
X      -10.8364423     -7.4954253      0.6355344
P      -15.5901747     -2.2282555      2.1675525
O      -16.0815800     -1.0552658      1.1947162
C      -16.7469853     -1.3301554     -0.0280390
X      -16.8941227     -0.0261571     -0.8120136
X      -17.4040536      2.2337041     -0.2827068
X      -17.1761174      3.7077117      2.3653437
P      -13.5325753     -0.0043749     -2.6647191
O      -13.7643176     -0.2141890     -4.2411999
C      -12.9135739      0.3919458     -5.2323073
X      -13.1137067     -0.1687424     -6.6203043
X      -13.7548533     -2.2609516     -7.5099564
X      -15.2876997     -4.6587610     -6.5396792
P      -15.3943151      2.6276844     -8.0512975
O      -14.6360516      3.4009790     -9.2584798
C      -13.7171891      2.7637766    -10.1730892
X      -12.9698078      3.6858759    -11.1233717
X      -13.3431760      5.9060528    -11.7921458
X      -14.7098910      8.2327537    -10.3479313
P      -10.1982918      4.6351192     -8.8121630
O       -9.1470601      5.6644404     -9.4318237
C       -7.7977470      5.3517215     -9.7409480
X       -7.0716034      6.6323584    -10.0866398
X       -7.6139012      8.6692167    -11.1468364
X       -9.9961321      9.7621880    -11.1926065
X      -10.1339600     11.8267333    -11.8830657
P       -5.4905573      7.2550852     -6.5749785
O       -5.4197457      8.8091927     -6.3118270
C       -6.1419392      9.4265987     -5.2516011
X       -5.7432740      8.8690539     -3.8841467
X       -4.6477985      6.9226612     -3.1751297
X       -2.9748271      5.5442816     -4.6703738
X       -2.1213386      3.6950108     -3.8940480
P       -2.7293124     11.1578411     -2.9854935
O       -2.5091222     11.4495739     -1.4231730
C       -1.1783489     11.7024602     -0.8964504
X       -1.2674160     12.0072748      0.6082120
X       -3.1479024     12.7084526      1.8204341
X       -6.1141987     13.0766756      1.8388511
P       -0.0301503      8.2405092      1.7531932
O        0.5178650      8.1001103      3.1825435
C       -0.2155891      8.8834581      4.0930043
X       -0.7784323      8.3764458      5.4027724
X       -1.5646620      6.3004804      6.1323691
X       -1.0717051      4.3830039      4.3993024
X        0.2281403      2.7838997      5.1330178
P        2.4118150      9.3599361      7.3848268
O        2.3409070      8.8332681      8.8859392
C        2.8505969      9.5825026      9.9993369
X        2.9418294      8.6860663     11.2458752
X        2.2144741      6.5596695     11.9332852
X        1.8906201      4.5238340     10.3295216
X        2.6048643      2.4043125     11.2826558
P        6.5294440      7.7512924     10.7188923
O        6.8445273      6.2561286     11.1515997
C        7.8569398      5.4703573     10.5059771
X        7.4992615      5.1688120      9.0550764
X        8.0296846      6.1396860      6.9830049
X       10.2918292      7.8775046      6.0094900
P        9.4562099      1.9108193      8.6425440
O        9.6507370      1.6193334      7.0824741
C       10.8794237      1.1803003      6.5071103
X       10.7578774      0.9554103      5.0124968
X       11.6151409      2.0757868      3.1475258
X       13.9478992      3.9619620      3.0892442
P       13.1239585     -2.0318605      4.9042407
O       13.7190676     -2.2520609      3.4462177
C       12.9243192     -2.6000786      2.3120897
X       13.7554739     -2.4753758      1.0460199
X       15.3923516     -0.9962529      0.2677583
X       17.1678374      0.1456273      1.8196861
X       18.8882956      1.2270662      0.4507431
   142
  Step:          925 Total energy:    2282.0906073894366      Temperature:   0.61599999999999999     
O       -6.4270057     -3.4390733     -9.0369369
C       -6.7906092     -3.9968637    -10.3029112
X       -6.3155222     -3.1020741    -11.4339465
X       -5.7722326     -0.8306374    -11.6463754
X       -4.6104123      0.5841166     -9.7660045
X       -3.2686534      2.4352914    -10.6625426
P       -2.7683166     -4.5574028    -11.7040494
O       -1.7504507     -3.4301361    -12.1888759
C       -1.3459681     -3.2188588    -13.5517401
X       -0.1780820     -2.2508087    -13.6359077
X        0.3939918     -0.1960493    -12.6647774
X       -0.4311658      0.7310570    -10.3464119
X        1.0523581      2.4927356     -9.5077784
P        2.6786371     -4.7532281    -13.0936480
O        3.4322223     -4.4295781    -11.7407415
C        4.1259577     -3.2109436    -11.4615469
X        4.6210200     -3.2297994    -10.0306352
X        4.0780528     -4.4910558     -8.1345675
X        3.2040227     -6.9451034     -8.3349993
X        3.4611390     -8.1642448     -6.2274574
P        8.1993214     -4.4260693    -10.6379999
O        8.9870869     -4.3098494     -9.2567001
C       10.2114367     -5.0400758     -9.0243246
X       10.9909506     -4.4117547     -7.8750797
X       10.8965736     -2.4414530     -6.6302914
X        8.7673359     -1.0532030     -6.0459480
X        9.1439203      0.2140226     -3.9936087
P        9.7452614     -6.6200236     -5.0662888
O        9.8555557     -5.9151324     -3.6492768
C       11.1234301     -5.6219992     -3.0526250
X       10.9262612     -5.0160821     -1.6555390
X        9.1188074     -4.0307091     -0.5208974
X        6.1162267     -4.3145612     -1.0227158
P       11.1984661     -8.2493084      0.3820328
O       10.6245821     -8.0537431      1.8730662
C        9.4115673     -8.6761126      2.2848444
X        9.6093947     -9.6533139      3.4384157
X       11.4210779    -10.6881149      4.5001849
X       13.8303361     -9.6430325      4.5734026
X       15.0687771    -10.3322280      6.5752490
P        8.7763017     -7.3481954      6.3776119
O        9.0215326     -8.0412200      7.7903564
C        8.5350296     -9.3232085      8.2298519
X        8.1975395     -9.2533647      9.7120085
X        8.5894416     -7.8031977     11.5001813
X        8.9418461     -5.2292854     11.2194013
X        7.5183792     -4.0819820     12.8500592
P        4.3833724     -8.7378282      9.4903572
O        3.7396938     -7.7210799     10.5477122
C        2.9929088     -8.2257482     11.6553148
X        2.1884966     -7.1530770     12.3649206
X        2.2058922     -4.8074199     12.4634143
X        3.3093811     -2.5889132     10.7487017
P       -0.9587835     -7.5325600     10.3093906
O       -1.8615200     -6.2158654     10.2513039
C       -3.0108950     -5.9534332     11.0681824
X       -3.5892348     -4.5527822     10.8790108
X       -2.9056745     -2.5412648      9.8909512
X       -0.9973615     -2.0310430      7.5552141
P       -6.2078670     -5.3836798      8.2129610
O       -6.9435813     -4.0407262      7.7074576
C       -8.0644668     -3.5252874      8.4274652
X       -8.6823341     -2.3380380      7.7207011
X       -7.9872294     -0.8593177      6.0462148
X       -6.0664262     -1.1340838      3.7298668
P      -11.3891575     -4.2421840      5.8029274
O      -11.3399827     -4.0282932      4.2317258
C      -11.5639423     -2.7411087      3.6293135
X      -11.7717278     -2.8615340      2.1305493
X      -11.2715726     -4.5256248      0.5481880
X      -10.8356662     -7.4962693      0.6423229
P      -15.6232016     -2.2560873      2.2326494
O      -16.0786027     -1.1170579      1.1922461
C      -16.7422754     -1.3095041     -0.0668086
X      -16.9421294      0.0167761     -0.8115779
X      -17.4184480      2.2140571     -0.2128194
X      -17.1903993      3.7152636      2.3294323
P      -13.5535329      0.0026132     -2.6945197
O      -13.7195574     -0.2456184     -4.2635084
C      -12.9125662      0.4408264     -5.2355605
X      -13.0968804     -0.1515130     -6.6302593
X      -13.7572388     -2.2488136     -7.5156514
X      -15.3020132     -4.6439198     -6.5304374
P      -15.3533769      2.6253513     -8.0318259
O      -14.6382732      3.3504881     -9.2475840
C      -13.7311488      2.6767469    -10.1361008
X      -13.0768643      3.6849812    -11.1257549
X      -13.3977918      5.9197241    -11.7960905
X      -14.7165689      8.2275595    -10.3442359
P      -10.1818146      4.6243989     -8.7973350
O       -9.1485993      5.6701408     -9.4274705
C       -7.8020998      5.3938908     -9.8163699
X       -7.0221152      6.6586634    -10.0924590
X       -7.5656112      8.7185469    -11.1220749
X       -9.9863159      9.7516503    -11.1874302
X      -10.1524732     11.8137970    -11.9076158
P       -5.5186724      7.2378325     -6.5927038
O       -5.3838312      8.8126564     -6.2993547
C       -6.0473112      9.4667681     -5.2118160
X       -5.6509289      8.8673626     -3.8594134
X       -4.6218851      6.9053428     -3.1067722
X       -2.9765057      5.5457199     -4.6586552
X       -2.1274576      3.7165121     -3.8592179
P       -2.6870336     11.1736806     -3.0285736
O       -2.5209487     11.3572679     -1.4369376
C       -1.2875085     11.7209380     -0.8332600
X       -1.4234074     11.7953423      0.6648420
X       -3.1416957     12.7108328      2.0228769
X       -6.1410624     13.1680681      1.7931829
P        0.0172848      8.1687883      1.6956526
O        0.5823492      8.2079171      3.2513971
C       -0.1985708      8.9940456      4.0843952
X       -0.5855576      8.2214414      5.3547613
X       -1.6429409      6.2476896      6.1234880
X       -1.0553628      4.3831598      4.4131296
X        0.2255532      2.7984806      5.0863277
P        2.4129124      9.3246427      7.3908439
O        2.3400702      8.8062539      8.8948888
C        2.7183286      9.5751300     10.0369837
X        2.8863293      8.7001183     11.2674851
X        2.2065620      6.5484937     11.9149326
X        1.8615505      4.5323543     10.2750426
X        2.5984924      2.4285529     11.2964609
P        6.5689980      7.7509655     10.7155450
O        6.9305853      6.2581951     11.1680497
C        7.9092092      5.4477138     10.5004518
X        7.5537652      5.1972456      9.0350708
X        8.0422876      6.1531229      6.9467727
X       10.2949322      7.8876696      5.9991627
P        9.4709136      1.9419287      8.5757733
O        9.6596521      1.6129327      7.0415889
C       10.9064542      1.1523492      6.5536929
X       10.7863003      0.9565546      5.0599546
X       11.5858716      2.1070168      3.1838936
X       13.9552012      3.9543650      3.0865498
P       13.0867422     -2.0423610      4.9103179
O       13.7164346     -2.2218463      3.4561812
C       12.9441543     -2.6433185      2.3284150
X       13.7415674     -2.4858408      1.0420852
X       15.3819132     -1.0035786      0.2663527
X       17.1618725      0.1485149      1.8116146
X       18.8992439      1.2341251      0.4685345
   142
  Step:          950 Total energy:    2295.2104952885034      Temperature:   0.61600000000000077     
O       -6.4601736     -3.3726901     -9.0307366
C       -6.7921110     -3.9740912    -10.2849834
X       -6.3192553     -3.0822586    -11.4205981
X       -5.7720620     -0.8117508    -11.6423110
X       -4.6115835      0.6080090     -9.7686472
X       -3.2734763      2.4426016    -10.6700933
P       -2.7871409     -4.5751377    -11.7159722
O       -1.7082275     -3.4680015    -12.1493578
C       -1.3550543     -3.1904716    -13.5063510
X       -0.1681065     -2.2272588    -13.5842541
X        0.4191214     -0.1537661    -12.6489783
X       -0.4425664      0.7484021    -10.3515009
X        1.0765043      2.4914697     -9.5469273
P        2.6500042     -4.7177817    -13.1182099
O        3.4151539     -4.4117022    -11.7378811
C        4.1132454     -3.1898886    -11.4612824
X        4.5998481     -3.2004074    -10.0170395
X        4.1001302     -4.4880655     -8.1130489
X        3.2092277     -6.9494669     -8.3512258
X        3.4681234     -8.1404877     -6.2388340
P        8.1605430     -4.4351397    -10.6069034
O        9.0323501     -4.2621090     -9.2859443
C       10.2022359     -4.9922829     -9.0027292
X       10.9865363     -4.4061976     -7.8660901
X       10.9384567     -2.4332184     -6.5936184
X        8.7486194     -1.0562701     -6.0509195
X        9.1505357      0.2309192     -4.0007552
P        9.7502035     -6.6349690     -5.0526976
O        9.8622108     -5.8719178     -3.6417084
C       11.1029461     -5.6585458     -2.9802164
X       10.9205076     -5.0257044     -1.6379028
X        9.1314155     -4.0490495     -0.5085024
X        6.1309527     -4.3134727     -1.0613080
P       11.1715608     -8.2327928      0.3666258
O       10.6580875     -8.0514477      1.8622898
C        9.4253460     -8.6272136      2.2836029
X        9.6044870     -9.6212513      3.4177869
X       11.4349339    -10.6757020      4.4340287
X       13.8425771     -9.6396661      4.5741548
X       15.0428081    -10.3388861      6.5823289
P        8.7591593     -7.3611411      6.4226263
O        9.0672109     -8.0665487      7.8237442
C        8.5316495     -9.3335254      8.2159684
X        8.1670008     -9.2976842      9.6925490
X        8.5640378     -7.8072418     11.4705152
X        8.9420005     -5.2294857     11.2191197
X        7.5104450     -4.0732908     12.8332736
P        4.3824979     -8.7475324      9.5220807
O        3.7504274     -7.7392966     10.5590288
C        2.9646464     -8.2369851     11.6447218
X        2.2058131     -7.1188465     12.3516103
X        2.1935318     -4.7765305     12.4650792
X        3.3220850     -2.5971102     10.7597028
P       -0.9968691     -7.5564842     10.2440360
O       -1.8562371     -6.2097697     10.2425195
C       -2.9698266     -5.9657609     11.1025695
X       -3.5639827     -4.5786088     10.8894671
X       -2.8642208     -2.5696254      9.8962321
X       -0.9749480     -2.0494444      7.5493231
P       -6.1896505     -5.3982274      8.1675439
O       -6.9557035     -4.0895705      7.7011125
C       -8.0496798     -3.5149018      8.4174425
X       -8.6519652     -2.2997151      7.6803279
X       -8.0008211     -0.8642038      5.9518077
X       -6.0550948     -1.1481639      3.6968334
P      -11.3888970     -4.2245035      5.8110628
O      -11.3164652     -4.0271552      4.2349809
C      -11.5498706     -2.7440330      3.6416118
X      -11.7991249     -2.8949064      2.1596328
X      -11.2961501     -4.5299528      0.5628676
X      -10.8275328     -7.5040228      0.6440607
P      -15.6469396     -2.2748978      2.2439626
O      -16.0930692     -1.0996642      1.2299282
C      -16.7234988     -1.3237683     -0.0495634
X      -16.9268418     -0.0519837     -0.8646213
X      -17.4776643      2.1828209     -0.3170112
X      -17.2012510      3.7323355      2.3065654
P      -13.5868241      0.0072438     -2.7207213
O      -13.7064849     -0.2465302     -4.2834776
C      -12.8818670      0.4054629     -5.2380230
X      -13.1064740     -0.1647969     -6.6218199
X      -13.7797890     -2.2204192     -7.4805471
X      -15.3110080     -4.6179952     -6.5297424
P      -15.3087327      2.5990796     -8.0140770
O      -14.6429365      3.3323100     -9.2737295
C      -13.7881727      2.6790046    -10.1807894
X      -13.1248754      3.6413719    -11.1024228
X      -13.4351167      5.8320854    -11.8113720
X      -14.7293637      8.2309293    -10.3414095
P      -10.1341263      4.6010600     -8.7860057
O       -9.1849829      5.7096808     -9.4515263
C       -7.8108794      5.4074807     -9.8110329
X       -7.0175051      6.6662789    -10.1554472
X       -7.5246985      8.7887167    -11.0263398
X       -9.9676055      9.7485837    -11.1970839
X      -10.1695637     11.7863820    -11.9279139
P       -5.5679835      7.2468239     -6.6357050
O       -5.3236554      8.7726267     -6.2651150
C       -5.9140316      9.4871639     -5.1749502
X       -5.5565794      8.8871441     -3.8264937
X       -4.5908736      6.8985320     -3.0806966
X       -2.9898444      5.5492217     -4.6692491
X       -2.1257730      3.7249184     -3.8135336
P       -2.6635591     11.1940195     -3.0661055
O       -2.4889757     11.2319565     -1.5024262
C       -1.3386852     11.6016649     -0.7551643
X       -1.6768361     11.5995802      0.7309348
X       -3.2369455     12.5729872      2.2227596
X       -6.1358218     13.2503645      1.7436875
P        0.0621873      8.1892862      1.6347121
O        0.4938755      8.2822282      3.1177803
C       -0.2595268      8.9660092      4.1119196
X       -0.4765054      8.2897273      5.4743461
X       -1.5419922      6.3390453      6.0535042
X       -1.0662514      4.3785668      4.3711992
X        0.2484214      2.7648679      5.0579794
P        2.4279863      9.2916712      7.4177988
O        2.3496180      8.7309376      8.9241590
C        2.6024010      9.5516396     10.0584582
X        2.8540351      8.6949317     11.2729927
X        2.1901427      6.5352113     11.9017790
X        1.8393869      4.5434065     10.2220462
X        2.5899459      2.4520433     11.2973592
P        6.6210811      7.7531244     10.7022394
O        6.9773013      6.2584801     11.1448117
C        7.9763148      5.4911912     10.4698463
X        7.5662995      5.2100812      9.0354620
X        8.0344229      6.1740058      6.9492171
X       10.3009495      7.8977099      5.9830571
P        9.4684632      1.9782401      8.5433413
O        9.6591659      1.6256799      7.0080555
C       10.9071808      1.1084462      6.5684141
X       10.8395766      0.9481363      5.0712661
X       11.5807304      2.1414789      3.2078767
X       13.9624367      3.9464268      3.0763344
P       13.0651272     -2.0759422      4.9058296
O       13.7057674     -2.1706110      3.4473280
C       12.9694945     -2.6908204      2.3390737
X       13.7328549     -2.4990400      1.0403238
X       15.3684260     -1.0079092      0.2654269
X       17.1543468      0.1500070      1.7959838
X       18.9112238      1.2401529      0.4820974
   142
  Step:          975 Total energy:    2285.7933526124602      Temperature:   0.61599999999999977     
O       -6.5027172     -3.3122460     -9.0094579
C       -6.7882495     -3.9338538    -10.2637805
X       -6.3004102     -3.0637943    -11.4099374
X       -5.7068279     -0.8104253    -11.6670798
X       -4.6257862      0.6282392     -9.7593820
X       -3.2757834      2.4563887    -10.6827373
P       -2.8054046     -4.5731513    -11.7386086
O       -1.6980570     -3.4881124    -12.1049932
C       -1.3626039     -3.1800546    -13.4493280
X       -0.2004477     -2.2056608    -13.5604594
X        0.3949755     -0.1264844    -12.6620934
X       -0.4457243      0.7642692    -10.3512955
X        1.1028935      2.4958285     -9.5811806
P        2.6407404     -4.6729315    -13.1150851
O        3.4200468     -4.4037334    -11.7590562
C        4.0824883     -3.1819803    -11.4466989
X        4.5694830     -3.1886417    -10.0093704
X        4.0808535     -4.4800726     -8.1328701
X        3.2206628     -6.9390584     -8.3729507
X        3.4735288     -8.1253954     -6.2377280
P        8.1126259     -4.4439391    -10.5753028
O        9.0611527     -4.1808780     -9.2977442
C       10.2217641     -4.9748377     -9.0202334
X       11.0158977     -4.3961560     -7.8374479
X       10.9023339     -2.3941779     -6.6120414
X        8.7501932     -1.0628789     -6.0459464
X        9.1480244      0.2512381     -4.0121599
P        9.7461239     -6.6441613     -5.0231823
O        9.8674250     -5.8743237     -3.6452787
C       11.1328513     -5.6552139     -2.9991180
X       10.9245874     -5.0441290     -1.6087601
X        9.1261102     -4.0364723     -0.4688039
X        6.1415704     -4.3102786     -1.0984776
P       11.1571405     -8.2286188      0.3588946
O       10.6686044     -8.0574837      1.8606004
C        9.3960433     -8.5596907      2.3112342
X        9.6138336     -9.5740627      3.4350767
X       11.4655017    -10.6806195      4.3748266
X       13.8495947     -9.6284725      4.5638411
X       15.0190054    -10.3491658      6.5993494
P        8.7440585     -7.3792605      6.4536346
O        9.0981215     -8.0984101      7.8316350
C        8.4710896     -9.3132145      8.2194177
X        8.1533359     -9.3285030      9.6998966
X        8.5875793     -7.8219944     11.4438658
X        8.9341356     -5.2346771     11.2218287
X        7.5037460     -4.0550445     12.8190468
P        4.3716873     -8.7706466      9.4906900
O        3.8274104     -7.7385212     10.6057888
C        3.0273597     -8.1915191     11.7209764
X        2.1163715     -7.1337671     12.3262460
X        2.1843141     -4.7923632     12.4943894
X        3.3350983     -2.5991857     10.7664676
P       -1.0328966     -7.5626102     10.1953417
O       -1.8398849     -6.1805080     10.2144177
C       -2.9644029     -5.9994874     11.0817078
X       -3.5464913     -4.6034236     10.9255555
X       -2.8546601     -2.6266414      9.8691724
X       -0.9508607     -2.0647030      7.5421581
P       -6.1573066     -5.4131360      8.1510243
O       -6.9711194     -4.1080981      7.6680629
C       -8.0182982     -3.4696506      8.4098964
X       -8.6437458     -2.3092695      7.6417560
X       -7.9994887     -0.8519307      5.9197930
X       -6.0402046     -1.1618920      3.6603410
P      -11.3847616     -4.2251557      5.8373294
O      -11.3182614     -3.9920269      4.2641857
C      -11.5512666     -2.7308848      3.6550453
X      -11.8419854     -2.9022882      2.1677416
X      -11.3856098     -4.5416127      0.5401017
X      -10.8148959     -7.5131081      0.6474488
P      -15.6605040     -2.2683170      2.2195972
O      -16.1199956     -1.0798879      1.2588407
C      -16.6562741     -1.3473595     -0.0485340
X      -16.9422519     -0.0658585     -0.8107073
X      -17.4571007      2.1389141     -0.2484704
X      -17.2136092      3.7371580      2.2610463
P      -13.6012221      0.0140077     -2.7194583
O      -13.7646904     -0.2334562     -4.3007736
C      -12.8334978      0.3683161     -5.1961645
X      -13.0596264     -0.1681317     -6.6078060
X      -13.7818487     -2.1933084     -7.5460465
X      -15.3240217     -4.5930675     -6.5247574
P      -15.2950910      2.5846768     -7.9926388
O      -14.6684879      3.3292844     -9.2557705
C      -13.8171280      2.6436605    -10.1996825
X      -13.0743657      3.6221535    -11.1195244
X      -13.4951467      5.8210130    -11.7410096
X      -14.7420240      8.2315279    -10.3419466
P      -10.0981832      4.5798109     -8.8077177
O       -9.1974368      5.7098136     -9.4591535
C       -7.8463917      5.4263593     -9.8618708
X       -7.0497178      6.6961855    -10.1421851
X       -7.4830955      8.8161098    -10.9861502
X       -9.9467958      9.7405326    -11.2000455
X      -10.1874731     11.7696576    -11.9458983
P       -5.6283934      7.2514787     -6.6549572
O       -5.2268328      8.7632119     -6.2900261
C       -5.8553095      9.4782931     -5.2031867
X       -5.5372802      8.8926750     -3.8379263
X       -4.5605688      6.8991595     -3.0681470
X       -2.9952954      5.5252022     -4.6740864
X       -2.1267879      3.7479454     -3.7711443
P       -2.6306638     11.2152559     -3.1052560
O       -2.5025934     11.1111748     -1.4938890
C       -1.4318688     11.5798322     -0.6594185
X       -1.7907178     11.4502537      0.8084750
X       -3.3949157     12.2714735      2.2781299
X       -6.1211423     13.3342222      1.6968113
P        0.0570410      8.2828146      1.5488280
O        0.4279038      8.2081607      3.1531106
C       -0.1486035      9.1306727      4.1657328
X       -0.6498778      8.4005339      5.4124406
X       -1.3492059      6.2776437      6.1230999
X       -1.0623512      4.3503159      4.3200705
X        0.2512274      2.7342089      5.0314429
P        2.5012932      9.2693326      7.4973229
O        2.4089787      8.6819384      8.9462101
C        2.6171375      9.5418796     10.0714090
X        2.8467541      8.6339511     11.2764703
X        2.1715700      6.4830727     11.9009560
X        1.8326956      4.5449882     10.1978177
X        2.5726723      2.4923183     11.2772106
P        6.6373283      7.7780190     10.6885695
O        6.9990609      6.2888542     11.1176831
C        8.0099742      5.5232139     10.4571873
X        7.5737003      5.2537346      9.0305551
X        8.0231968      6.2144452      6.9432422
X       10.3064438      7.9076974      5.9686349
P        9.4545069      2.0059439      8.5476880
O        9.6789677      1.6688332      7.0159997
C       10.9024709      1.1026920      6.5651049
X       10.8141079      0.9259705      5.0676385
X       11.5843427      2.1335208      3.2135967
X       13.9760628      3.9473699      3.0649469
P       13.0645525     -2.1181267      4.8866814
O       13.7078067     -2.1640842      3.4346751
C       12.9917707     -2.7310613      2.3408282
X       13.7465722     -2.5173078      1.0429680
X       15.3475631     -0.9910583      0.2569367
X       17.1459662      0.1519848      1.7842941
X       18.9222812      1.2466531      0.4953256
   142
  Step:         1000 Total energy:    2280.8790309802439      Temperature:   0.61600000000000044     
O       -6.5440628     -3.2541754     -8.9837396
C       -6.7894628     -3.8833400    -10.2470271
X       -6.2681838     -3.0418207    -11.4040823
X       -5.6367635     -0.8041355    -11.6904063
X       -4.6375158      0.6495596     -9.7514710
X       -3.2810701      2.4676825    -10.6935466
P       -2.8211852     -4.5808275    -11.7515560
O       -1.7243282     -3.4632215    -12.0668440
C       -1.3947121     -3.1787243    -13.4347696
X       -0.2443940     -2.2011451    -13.5672401
X        0.3172465     -0.1062094    -12.6978342
X       -0.4393084      0.7803561    -10.3466679
X        1.1309980      2.5054702     -9.6101851
P        2.6473886     -4.6387052    -13.1157517
O        3.4388189     -4.3946614    -11.7538116
C        4.0626600     -3.1435527    -11.4583240
X        4.5449584     -3.1659167    -10.0116987
X        4.0296693     -4.4451926     -8.1161678
X        3.2356112     -6.9364492     -8.3824606
X        3.4767460     -8.1112131     -6.2452285
P        8.0949659     -4.4532069    -10.5331662
O        9.0718642     -4.1375679     -9.3215302
C       10.2079552     -4.9595738     -9.0238638
X       11.0177581     -4.3783978     -7.8657986
X       10.9498420     -2.3818508     -6.6326332
X        8.7512919     -1.0630083     -6.0315543
X        9.1380705      0.2741279     -4.0279052
P        9.7405161     -6.6445088     -5.0143611
O        9.8791030     -5.9131570     -3.5981995
C       11.1455603     -5.5919699     -2.9973985
X       10.9227763     -5.0201285     -1.6095434
X        9.1180702     -4.0563922     -0.4906198
X        6.1539445     -4.3060262     -1.1342361
P       11.1502999     -8.2606166      0.3641041
O       10.6538922     -8.0331593      1.8706252
C        9.4014354     -8.5090168      2.3801129
X        9.6170943     -9.5415308      3.4523656
X       11.4656166    -10.6745685      4.3359089
X       13.8644516     -9.6156864      4.5548479
X       14.9894496    -10.3597127      6.6102749
P        8.7379664     -7.3887581      6.4686579
O        9.0761485     -8.1531310      7.8258353
C        8.4244919     -9.3626651      8.2074937
X        8.1453750     -9.3038445      9.7069019
X        8.6317556     -7.8457424     11.4786417
X        8.9218455     -5.2469728     11.2211557
X        7.4973431     -4.0319736     12.8070882
P        4.3544264     -8.7591291      9.4741747
O        3.8744660     -7.7923055     10.6487017
C        3.0270225     -8.2156621     11.7146967
X        2.1578802     -7.1150769     12.3290124
X        2.0963955     -4.7708857     12.4323283
X        3.3464600     -2.6077506     10.7776570
P       -1.0403923     -7.5476165     10.1529784
O       -1.8705248     -6.2033859     10.1733100
C       -2.9822534     -6.0224796     11.0500433
X       -3.5628400     -4.6296232     10.8990048
X       -2.8555593     -2.6633023      9.8465735
X       -0.9262858     -2.0801192      7.5327409
P       -6.1321152     -5.4058884      8.1581298
O       -6.9343559     -4.1227082      7.6384681
C       -7.9810135     -3.4695374      8.3762383
X       -8.6103213     -2.3095199      7.6346980
X       -7.9565590     -0.8644003      5.9051086
X       -6.0240235     -1.1759938      3.6229126
P      -11.3773183     -4.2375080      5.8715238
O      -11.3633300     -3.9746853      4.2855361
C      -11.5927539     -2.7255348      3.6288434
X      -11.8740930     -2.8997696      2.1296207
X      -11.4976037     -4.6059676      0.5723062
X      -10.8027726     -7.5126647      0.6508414
P      -15.6659324     -2.2642349      2.2119298
O      -16.1066652     -1.0792004      1.2584049
C      -16.6475806     -1.3946485     -0.0161755
X      -16.9028924     -0.1197764     -0.7999572
X      -17.4854187      2.0931331     -0.2628367
X      -17.2233837      3.7478389      2.2229337
P      -13.6196778      0.0166371     -2.7103561
O      -13.8146222     -0.1754426     -4.2705649
C      -12.8224299      0.3022260     -5.1862104
X      -12.9973889     -0.2201868     -6.6176950
X      -13.7869796     -2.2069268     -7.5693180
X      -15.3329542     -4.5578936     -6.5230191
P      -15.3045543      2.5895032     -7.9748377
O      -14.6374178      3.2777011     -9.2554091
C      -13.7223013      2.5896310    -10.1217083
X      -13.0952988      3.6086620    -11.1038765
X      -13.4281429      5.8693136    -11.7374107
X      -14.7603598      8.2356524    -10.3409949
P      -10.1003603      4.5378477     -8.8505548
O       -9.1824096      5.7042551     -9.4628735
C       -7.8680173      5.4437972     -9.9367692
X       -7.0696390      6.7359220    -10.1065810
X       -7.4571583      8.8382860    -11.0365956
X       -9.9308610      9.7308914    -11.1984065
X      -10.2049610     11.7606958    -11.9629810
P       -5.6749099      7.2541030     -6.6266856
O       -5.1853705      8.7274604     -6.3407406
C       -5.8574625      9.4573843     -5.3319255
X       -5.5860508      8.8544242     -3.9762430
X       -4.5717385      6.9180408     -3.1245421
X       -3.0011810      5.4974380     -4.6716071
X       -2.1193571      3.7629964     -3.7268687
P       -2.6066395     11.2050731     -3.0543756
O       -2.4587005     11.0850177     -1.4991118
C       -1.4868370     11.7017362     -0.6934350
X       -1.8590226     11.4336956      0.7578305
X       -3.5273750     11.9824735      2.3405345
X       -6.1182350     13.4199045      1.6483572
P        0.0832972      8.3649335      1.5954270
O        0.2379583      8.0889701      3.1463629
C       -0.0959844      9.0726347      4.1646019
X       -0.6693908      8.5276289      5.4355884
X       -1.2160021      6.3172042      5.9763722
X       -1.0095545      4.3040891      4.3015997
X        0.2244062      2.7048812      4.9893106
P        2.5547111      9.2403807      7.5163056
O        2.4485629      8.6377795      8.9885076
C        2.7267937      9.4614567     10.1221453
X        2.9121253      8.5808682     11.3230951
X        2.1535637      6.4719950     11.9478071
X        1.8251716      4.5573074     10.1737779
X        2.5615388      2.5062774     11.2504698
P        6.6110495      7.8261316     10.6761331
O        7.0036098      6.3456511     11.1300399
C        7.9962970      5.5562419     10.4534135
X        7.5864990      5.3060792      9.0093262
X        8.0053102      6.2659737      6.9153678
X       10.3136866      7.9173810      5.9531987
P        9.4372925      2.0223447      8.5839089
O        9.6967514      1.7353629      7.0411994
C       10.8700874      1.0963982      6.5512713
X       10.7676812      0.9234694      5.0511358
X       11.6329430      2.0933338      3.2143733
X       13.9898364      3.9497249      3.0514841
P       13.0705530     -2.1480729      4.8634448
O       13.7375149     -2.2231802      3.4203097
C       13.0196600     -2.7698770      2.3135033
X       13.7805731     -2.5396838      1.0228155
X       15.3290017     -0.9612243      0.2435082
X       17.1394605      0.1549337      1.7764648
X       18.9291136      1.2498278      0.5069909
   142
  Step:         1025 Total energy:    2290.2776277722232      Temperature:   0.61600000000000021     
O       -6.5726947     -3.1946177     -8.9754057
C       -6.7927660     -3.8474229    -10.2291399
X       -6.2634341     -3.0086779    -11.3821882
X       -5.6216185     -0.7773685    -11.6900452
X       -4.6352094      0.6735163     -9.7468776
X       -3.2899716      2.4766855    -10.6910436
P       -2.8236444     -4.5858511    -11.7338973
O       -1.7756697     -3.4479158    -12.0772560
C       -1.4242105     -3.2051905    -13.4499201
X       -0.2925674     -2.2001030    -13.5785230
X        0.2308669     -0.0908502    -12.7112283
X       -0.4271212      0.7973640    -10.3381487
X        1.1603509      2.5220571     -9.6280076
P        2.6629728     -4.6218993    -13.1189436
O        3.4331243     -4.3464799    -11.7530717
C        4.0893273     -3.1151547    -11.4356498
X        4.5248080     -3.1246760     -9.9841904
X        3.9705419     -4.4264417     -8.1269061
X        3.2513316     -6.9263403     -8.3765524
X        3.4809587     -8.1002832     -6.2512881
P        8.0870605     -4.4641832    -10.5129848
O        9.0590680     -4.1193755     -9.2966189
C       10.1970313     -4.9358582     -8.9958940
X       10.9893669     -4.3477187     -7.8729797
X       10.9626564     -2.3823323     -6.6468110
X        8.7656640     -1.0740015     -6.0226908
X        9.1252610      0.3082594     -4.0276021
P        9.7423485     -6.6257428     -5.0125989
O        9.9037484     -5.9595557     -3.5708258
C       11.1467301     -5.5581236     -3.0120096
X       10.9555438     -4.9938144     -1.6262871
X        9.1521936     -4.0277980     -0.4814720
X        6.1559171     -4.3012498     -1.1634569
P       11.1358577     -8.2919624      0.3939162
O       10.6570166     -7.9965439      1.8840270
C        9.4084920     -8.4643264      2.3962693
X        9.6181467     -9.5342648      3.4607021
X       11.4827892    -10.6471725      4.3457808
X       13.8818657     -9.6063398      4.5581964
X       14.9553594    -10.3661852      6.6158885
P        8.7379569     -7.3959847      6.4756089
O        9.0392525     -8.1685462      7.8249869
C        8.4256251     -9.3982185      8.2492385
X        8.1136667     -9.3152807      9.7401302
X        8.6511442     -7.8606585     11.4790407
X        8.9066203     -5.2583140     11.2264755
X        7.4958680     -4.0114427     12.7986325
P        4.3609449     -8.7319911      9.4833960
O        3.8498264     -7.7862613     10.6655369
C        3.0119204     -8.2530221     11.7171481
X        2.1470362     -7.1357344     12.3186692
X        2.0513330     -4.7884142     12.3819856
X        3.3583638     -2.6125177     10.7902478
P       -0.9923316     -7.5379839     10.1320253
O       -1.9294737     -6.2292773     10.1363606
C       -3.0326015     -6.0374227     11.0315635
X       -3.5802322     -4.6311368     10.8455760
X       -2.8541175     -2.6578250      9.8197951
X       -0.9038428     -2.0945459      7.5288949
P       -6.1275279     -5.4015013      8.1664501
O       -6.8595338     -4.0986501      7.6369148
C       -7.9520925     -3.5157862      8.3699976
X       -8.5415368     -2.3121400      7.6403536
X       -7.8971542     -0.8823687      5.8877676
X       -6.0070846     -1.1884299      3.5922214
P      -11.3693982     -4.2348034      5.8794112
O      -11.4487966     -3.9799591      4.2965203
C      -11.6063551     -2.7155389      3.6427010
X      -11.9272104     -2.8989755      2.1592697
X      -11.5619592     -4.5885227      0.5394850
X      -10.7911397     -7.5185858      0.6611512
P      -15.6596321     -2.2762031      2.2557820
O      -16.0718651     -1.1002324      1.2422382
C      -16.6515900     -1.4079943     -0.0102602
X      -16.9178713     -0.1672924     -0.8211431
X      -17.5048182      2.0570288     -0.2971652
X      -17.2338657      3.7626966      2.1967505
P      -13.6289902      0.0171826     -2.6928129
O      -13.8156447     -0.1352913     -4.2925924
C      -12.7717222      0.2546300     -5.1899095
X      -13.0172242     -0.2382513     -6.5937468
X      -13.7246402     -2.2417632     -7.6041113
X      -15.3445396     -4.5265356     -6.5140211
P      -15.2883401      2.5759299     -7.9532548
O      -14.6126892      3.2735486     -9.2393117
C      -13.6794802      2.6739207    -10.1143587
X      -13.0440375      3.6161710    -11.0564967
X      -13.3984175      5.8432828    -11.6734295
X      -14.7771052      8.2383648    -10.3363789
P      -10.1048913      4.4948508     -8.8960973
O       -9.1983337      5.6827222     -9.4681078
C       -7.8648489      5.4654391     -9.9018868
X       -7.0616836      6.7508058    -10.1567579
X       -7.4599571      8.8794980    -11.0859181
X       -9.9222247      9.7360608    -11.1990553
X      -10.2197072     11.7474353    -11.9676251
P       -5.7071047      7.2044954     -6.5825655
O       -5.1864908      8.6998585     -6.4277712
C       -5.8729075      9.4897631     -5.4579333
X       -5.5787381      8.9384471     -4.0657014
X       -4.6829593      6.9298621     -3.2436033
X       -3.0051438      5.4807403     -4.6712353
X       -2.0983674      3.7580923     -3.6685193
P       -2.6370034     11.1578450     -3.0381237
O       -2.4025390     11.0594437     -1.4389402
C       -1.5612508     11.8880878     -0.6442459
X       -1.9516670     11.5268306      0.7506155
X       -3.6936850     11.9281573      2.2005160
X       -6.1097503     13.4954470      1.6101500
P        0.1455760      8.3789896      1.6632339
O        0.0013675      8.0631216      3.2181266
C       -0.1705517      9.1446484      4.1085611
X       -0.4438684      8.5246437      5.4374965
X       -1.3218663      6.3529234      5.9107159
X       -0.9571957      4.3118520      4.2794720
X        0.2258207      2.6100005      4.9763325
P        2.5731585      9.1918422      7.5055385
O        2.4595632      8.6361539      9.0021873
C        2.8326447      9.4049753     10.1538784
X        2.9818178      8.5471890     11.3987975
X        2.1575376      6.4461943     11.9889571
X        1.8160207      4.5915350     10.1686046
X        2.5575552      2.4893669     11.2218109
P        6.5973085      7.8677435     10.6800149
O        7.0068043      6.4108114     11.1479145
C        7.9826335      5.6469325     10.4447487
X        7.5533023      5.3441020      9.0186954
X        7.9880875      6.2977175      6.9148214
X       10.3258001      7.9311425      5.9410850
P        9.4230174      2.0390307      8.6284006
O        9.6825240      1.7924456      7.0681198
C       10.8165720      1.0773267      6.5582634
X       10.7896719      0.9039090      5.0423916
X       11.6827423      2.0551662      3.2030642
X       14.0032089      3.9524316      3.0424815
P       13.0720444     -2.1572618      4.8492933
O       13.7548970     -2.2926933      3.4161603
C       13.0616944     -2.8159756      2.2792435
X       13.8194756     -2.5515076      0.9857517
X       15.3344685     -0.9354918      0.2221955
X       17.1354057      0.1617527      1.7810177
X       18.9314668      1.2512767      0.5210714
   142
  Step:         1050 Total energy:    2310.2362751712126      Temperature:   0.61599999999999944     
O       -6.5854668     -3.1345208     -8.9698685
C       -6.8057253     -3.8193077    -10.2052749
X       -6.2939607     -2.9892859    -11.3683477
X       -5.6810385     -0.7479042    -11.6679317
X       -4.6257560      0.6814077     -9.7391736
X       -3.2883952      2.4957133    -10.6853763
P       -2.8346922     -4.5856422    -11.6855455
O       -1.7860419     -3.4667513    -12.1312809
C       -1.4396015     -3.2434922    -13.4919031
X       -0.3258519     -2.2258494    -13.6138398
X        0.1716233     -0.1123185    -12.7107011
X       -0.4108536      0.8148217    -10.3249015
X        1.1946941      2.5384591     -9.6427082
P        2.6773417     -4.5989130    -13.1226004
O        3.4151739     -4.2831548    -11.7446424
C        4.1147373     -3.0736731    -11.4274919
X        4.5428308     -3.0877552     -9.9695381
X        3.9425173     -4.3881633     -8.1012282
X        3.2614916     -6.9164328     -8.3764149
X        3.4927672     -8.1046604     -6.2447909
P        8.0703833     -4.4705031    -10.5026075
O        8.9955305     -4.1321569     -9.2569556
C       10.1674635     -4.9405459     -8.9970902
X       10.9975687     -4.3588022     -7.8276957
X       10.9927464     -2.3395158     -6.6136653
X        8.7849589     -1.0844624     -6.0057792
X        9.1097055      0.3389482     -4.0291607
P        9.7486829     -6.6146871     -5.0246782
O        9.9320043     -5.9711108     -3.5773634
C       11.1940818     -5.5801097     -3.0213887
X       10.9570644     -4.9999307     -1.6173675
X        9.1244010     -4.0138045     -0.5414718
X        6.1675942     -4.3000149     -1.1874301
P       11.1221943     -8.2863904      0.4171431
O       10.6635072     -7.9852134      1.9180365
C        9.4056640     -8.4620997      2.3768448
X        9.6337807     -9.5291844      3.4518512
X       11.4956687    -10.6143902      4.3700196
X       13.8939998     -9.6002462      4.5561769
X       14.9285458    -10.3805344      6.6319515
P        8.7354232     -7.4165818      6.4779511
O        9.0156855     -8.1613725      7.8747592
C        8.4102252     -9.4011245      8.2820361
X        8.1268467     -9.3775921      9.7754005
X        8.5965567     -7.8693227     11.5131701
X        8.8955819     -5.2691536     11.2297417
X        7.4995057     -4.0008403     12.7913396
P        4.3770283     -8.6977907      9.5046969
O        3.7892756     -7.7387703     10.6482249
C        2.9916897     -8.2421879     11.7356314
X        2.0548807     -7.1950763     12.3124773
X        2.0995339     -4.8579870     12.3776047
X        3.3728159     -2.6201023     10.8006229
P       -0.9488728     -7.5368329     10.1066140
O       -1.9159482     -6.2768300     10.1211441
C       -3.0401642     -6.0519522     10.9770514
X       -3.5868562     -4.6261760     10.8389293
X       -2.8608242     -2.6490471      9.7968273
X       -0.8769732     -2.1146274      7.5237112
P       -6.1329260     -5.4258812      8.1571218
O       -6.7900408     -4.0570019      7.6475038
C       -7.8944525     -3.5165472      8.3661341
X       -8.5109459     -2.3547341      7.6248017
X       -7.8311617     -0.9018284      5.9161423
X       -5.9824807     -1.2073736      3.5576919
P      -11.3644969     -4.2245969      5.8745662
O      -11.5259348     -3.9977361      4.3153206
C      -11.6098030     -2.7379872      3.6426596
X      -11.9301070     -2.9647158      2.1890721
X      -11.5345784     -4.6217243      0.5903421
X      -10.7811497     -7.5180669      0.6744469
P      -15.6634622     -2.2764289      2.3190725
O      -16.0658673     -1.1584086      1.2462422
C      -16.6488681     -1.4393939     -0.0425931
X      -16.9940460     -0.1601732     -0.8140056
X      -17.4870407      2.0438684     -0.2454437
X      -17.2468926      3.7685958      2.1648547
P      -13.6252206      0.0078788     -2.7087199
O      -13.7713201     -0.1443675     -4.2792923
C      -12.7537284      0.2513260     -5.1970464
X      -13.0166504     -0.2540129     -6.5985103
X      -13.6785029     -2.2805514     -7.6074375
X      -15.3554001     -4.5067427     -6.5003989
P      -15.2391740      2.5550239     -7.9465941
O      -14.6044834      3.3424290     -9.1829679
C      -13.6910260      2.6567027    -10.0814899
X      -12.9965597      3.6314708    -11.0410582
X      -13.3891455      5.8703679    -11.6482427
X      -14.7929148      8.2357700    -10.3288707
P      -10.0637696      4.4527164     -8.9121106
O       -9.2141580      5.6816928     -9.4930305
C       -7.8502579      5.4729101     -9.9005821
X       -7.0280734      6.7097559    -10.1726442
X       -7.4485952      8.8277168    -11.1073637
X       -9.9250379      9.7357980    -11.1999102
X      -10.2342412     11.7420359    -11.9701776
P       -5.7303019      7.1372622     -6.5913575
O       -5.2510511      8.6561028     -6.4506998
C       -5.7469744      9.6314838     -5.5301710
X       -5.6025906      9.0076566     -4.1517584
X       -4.7747000      6.9515622     -3.3979088
X       -3.0083275      5.4435656     -4.6610161
X       -2.0801783      3.7609583     -3.6078774
P       -2.6624108     11.1125920     -3.0115751
O       -2.3580183     11.0230142     -1.4854814
C       -1.6312010     11.9708947     -0.7090175
X       -1.9182560     11.5699831      0.7581609
X       -3.6906892     11.9586620      2.3099639
X       -6.1450600     13.5911767      1.5605609
P        0.2154601      8.3965602      1.6958872
O       -0.1946507      8.1337647      3.2350805
C       -0.0197718      9.1484721      4.1872138
X       -0.4755197      8.3946074      5.4149491
X       -1.3289131      6.2718647      5.9264014
X       -0.8835497      4.3213297      4.2683056
X        0.2176422      2.5080176      4.9727032
P        2.6404671      9.1390976      7.5174057
O        2.4481777      8.6483958      9.0241969
C        2.8595241      9.4294617     10.1492662
X        2.9867856      8.5432541     11.3977189
X        2.2028921      6.4147771     12.0300851
X        1.8210649      4.6032118     10.2028834
X        2.5461075      2.4721669     11.1635920
P        6.6253803      7.9082411     10.7004544
O        7.0419158      6.4407705     11.1683735
C        7.9998171      5.6780853     10.4514707
X        7.5183806      5.4160190      9.0365470
X        8.0228948      6.3144576      6.9316946
X       10.3374318      7.9383039      5.9314590
P        9.4077937      2.0703478      8.6413470
O        9.6719113      1.7839175      7.0860995
C       10.8090978      1.0582260      6.5820324
X       10.8138644      0.8778290      5.0603446
X       11.7236486      2.0171821      3.2180326
X       14.0207032      3.9502243      3.0338257
P       13.0788891     -2.1810025      4.8406950
O       13.7628460     -2.3280776      3.3979580
C       13.1101903     -2.8747811      2.2462641
X       13.8614144     -2.5618403      0.9533317
X       15.3650793     -0.9272970      0.2027519
X       17.1333388      0.1661873      1.7953495
X       18.9345551      1.2471844      0.5346905
   142
  Step:         1075 Total energy:    2268.1803474792187      Temperature:   0.61600000000000077     
O       -6.5916981     -3.0858627     -8.9645753
C       -6.8344852     -3.7969757    -10.1833729
X       -6.3387537     -2.9742529    -11.3594214
X       -5.7530174     -0.7223567    -11.6384471
X       -4.6196999      0.6841664     -9.7367160
X       -3.2857186      2.5223057    -10.6802495
P       -2.8592743     -4.5641219    -11.6369269
O       -1.7812671     -3.5062794    -12.1744849
C       -1.4469893     -3.2934033    -13.5424475
X       -0.3420082     -2.2490941    -13.6697338
X        0.1471908     -0.1659502    -12.6817735
X       -0.3982020      0.8337780    -10.3177546
X        1.2227176      2.5550708     -9.6600731
P        2.6806061     -4.5500287    -13.1225152
O        3.3962959     -4.2288884    -11.7274139
C        4.1185916     -3.0305101    -11.4260098
X        4.5434957     -3.0762959     -9.9696008
X        3.9594032     -4.3902536     -8.1213983
X        3.2632302     -6.8944033     -8.3704064
X        3.5041785     -8.1089824     -6.2452960
P        8.0399304     -4.4613707    -10.4928949
O        8.9660014     -4.1954765     -9.2113077
C       10.1529944     -4.9173046     -8.9383366
X       10.9915011     -4.3387438     -7.8199773
X       11.0094650     -2.3513622     -6.5748671
X        8.8024846     -1.0840671     -5.9862946
X        9.0887854      0.3653259     -4.0389519
P        9.7521957     -6.6189429     -5.0371974
O        9.9579380     -5.9372723     -3.6077579
C       11.2178853     -5.6487595     -2.9991299
X       10.9697616     -5.0339994     -1.6329484
X        9.1493880     -4.0041035     -0.5741999
X        6.1672053     -4.2963586     -1.2121623
P       11.1183397     -8.2387220      0.4229206
O       10.6511913     -7.9883165      1.9191648
C        9.4111930     -8.4928402      2.3795377
X        9.6186079     -9.5290120      3.4524529
X       11.4774244    -10.6073551      4.3648767
X       13.9014668     -9.5929495      4.5543668
X       14.9074062    -10.3912112      6.6470331
P        8.7251557     -7.4364571      6.4996052
O        8.9832706     -8.1599527      7.8930092
C        8.4277359     -9.4011616      8.3059328
X        8.1337312     -9.3800956      9.7991332
X        8.5196841     -7.8531598     11.5523779
X        8.8822631     -5.2861049     11.2256360
X        7.4995903     -3.9917656     12.7847666
P        4.3732596     -8.6508656      9.5247618
O        3.7364786     -7.7324780     10.6498821
C        2.9061160     -8.2877419     11.6756888
X        2.0990307     -7.1827596     12.3417813
X        2.1020212     -4.8381359     12.3913209
X        3.3794065     -2.6309231     10.8090679
P       -0.9558561     -7.5651743     10.0547568
O       -1.8649290     -6.2342897     10.1024741
C       -2.9930672     -6.0574122     10.9686437
X       -3.5569887     -4.6555052     10.8248841
X       -2.8475909     -2.6711412      9.7860042
X       -0.8581642     -2.1324010      7.5163195
P       -6.1335261     -5.4363469      8.1343443
O       -6.7840204     -4.0817445      7.6435445
C       -7.8785326     -3.5192114      8.3428098
X       -8.4835282     -2.3454711      7.5931464
X       -7.7824324     -0.9226248      5.8883627
X       -5.9614021     -1.2229974      3.5255549
P      -11.3825430     -4.2306900      5.8960733
O      -11.5450934     -4.0324155      4.3241940
C      -11.5891290     -2.7531187      3.6736615
X      -11.9259567     -2.9576568      2.2043152
X      -11.4848091     -4.6088177      0.5864408
X      -10.7705720     -7.5305220      0.6852680
P      -15.6872031     -2.2562067      2.3541263
O      -16.1269691     -1.1685893      1.2634534
C      -16.7163938     -1.4931746     -0.0149691
X      -16.9607177     -0.2136961     -0.8334536
X      -17.5569020      2.0244922     -0.3227754
X      -17.2617308      3.7858908      2.1492308
P      -13.6241050      0.0060716     -2.7131235
O      -13.7680204     -0.2122563     -4.2978200
C      -12.7710666      0.2793615     -5.2206090
X      -12.9407568     -0.2590627     -6.6381522
X      -13.6831276     -2.2750654     -7.5796594
X      -15.3697903     -4.4948584     -6.4885875
P      -15.2106815      2.5598645     -7.9447970
O      -14.5295623      3.3573360     -9.1383408
C      -13.6982444      2.6523628    -10.0716120
X      -13.0729282      3.6600133    -11.0423232
X      -13.3656819      5.8996827    -11.6736998
X      -14.8113229      8.2347455    -10.3233494
P       -9.9898598      4.4431154     -8.9063530
O       -9.1772041      5.6638849     -9.5073802
C       -7.8229960      5.3893318     -9.9458418
X       -7.0469570      6.6572884    -10.1763908
X       -7.4813094      8.7591400    -11.1045523
X       -9.9289210      9.7252826    -11.2025123
X      -10.2487159     11.7513717    -11.9748575
P       -5.7673045      7.1299770     -6.6288507
O       -5.2314541      8.6423573     -6.4849144
C       -5.7027255      9.6529249     -5.5847149
X       -5.6177017      9.0372496     -4.2127995
X       -4.8145013      6.9610189     -3.4832669
X       -3.0199490      5.4020847     -4.6566867
X       -2.0773644      3.7810737     -3.5525914
P       -2.6592536     11.1111509     -3.0487367
O       -2.3770842     10.9309833     -1.4639090
C       -1.5954464     11.8346276     -0.6371505
X       -1.9687114     11.6307735      0.8009119
X       -3.6675252     12.2681369      2.2438487
X       -6.1845075     13.6768057      1.5134043
P        0.2083210      8.4919017      1.6843664
O       -0.1187155      8.0611972      3.1340495
C        0.0096678      8.9762029      4.2554949
X       -0.5362973      8.3937955      5.5647719
X       -1.2521293      6.2459262      6.0056727
X       -0.7866493      4.2487895      4.2584389
X        0.1769627      2.4732025      4.9543729
P        2.6921856      9.0809813      7.5315211
O        2.4416000      8.6463470      9.0434164
C        2.7473552      9.4656448     10.1621406
X        2.9770475      8.5942801     11.3584251
X        2.2684490      6.4756113     12.0409514
X        1.8265536      4.6101020     10.2459279
X        2.5286546      2.4449434     11.0952021
P        6.6759389      7.9392291     10.7338004
O        7.0769919      6.4833127     11.2039249
C        8.0091604      5.6871554     10.4747583
X        7.5526617      5.4223065      9.0444410
X        8.0145353      6.3411885      6.9337478
X       10.3469624      7.9460926      5.9196050
P        9.3863849      2.1172212      8.6130121
O        9.6670444      1.7410618      7.0802978
C       10.8400575      1.0571348      6.6116709
X       10.8135620      0.8741463      5.0975721
X       11.7512021      2.0082359      3.2756647
X       14.0326136      3.9474748      3.0228974
P       13.0895138     -2.2220609      4.8212161
O       13.7630696     -2.2989567      3.3721790
C       13.1473993     -2.9034529      2.2299517
X       13.8891139     -2.5866801      0.9347753
X       15.3823539     -0.9332486      0.2050246
X       17.1307307      0.1747613      1.8104810
X       18.9337716      1.2450999      0.5442115
   142
  Step:         1100 Total energy:    2255.9593777112650      Temperature:   0.61599999999999999     
O       -6.5984110     -3.0646719     -8.9563693
C       -6.8667566     -3.7781642    -10.1639619
X       -6.3771448     -2.9503387    -11.3362443
X       -5.7673498     -0.7067438    -11.6301553
X       -4.6132334      0.6984245     -9.7417388
X       -3.2907096      2.5394379    -10.6683417
P       -2.8835396     -4.5296317    -11.6077874
O       -1.7944173     -3.5198753    -12.1874609
C       -1.4453286     -3.3463156    -13.5683039
X       -0.3645001     -2.2683987    -13.6960099
X        0.1465472     -0.2148244    -12.6626792
X       -0.3863742      0.8466545    -10.3143183
X        1.2444420      2.5683809     -9.6798846
P        2.6816904     -4.4874452    -13.1166738
O        3.3671503     -4.1939315    -11.7234638
C        4.0939202     -3.0065604    -11.4328532
X        4.5352948     -3.0377298     -9.9778080
X        4.0158877     -4.3727720     -8.1194246
X        3.2556282     -6.8826371     -8.3530719
X        3.5157343     -8.1069445     -6.2573997
P        8.0272755     -4.4487406    -10.4712928
O        8.9278840     -4.2389444     -9.1558238
C       10.1613532     -4.9166720     -8.9539089
X       10.9891543     -4.3395284     -7.8214035
X       11.0297656     -2.3717707     -6.5362306
X        8.8096838     -1.0796028     -5.9750226
X        9.0689649      0.3953454     -4.0402131
P        9.7655574     -6.6241739     -5.0433122
O        9.9489033     -5.9083581     -3.6346625
C       11.2074731     -5.7130002     -2.9871921
X       10.9987517     -5.0458491     -1.6547322
X        9.1652552     -4.0378274     -0.6049876
X        6.1645935     -4.2890540     -1.2336712
P       11.1321002     -8.1940356      0.4161854
O       10.6208961     -7.9685192      1.9190240
C        9.3628243     -8.5047284      2.3890258
X        9.6054216     -9.5556872      3.4701508
X       11.4999609    -10.6170814      4.3523674
X       13.8986729     -9.5944523      4.5658043
X       14.8914048    -10.3933191      6.6530660
P        8.6992203     -7.4352420      6.5174349
O        8.9986278     -8.1685117      7.9121857
C        8.4677333     -9.4233491      8.3482750
X        8.0776273     -9.3432878      9.8174775
X        8.4868557     -7.8594507     11.5903458
X        8.8634886     -5.2972147     11.2220315
X        7.5011927     -3.9843690     12.7778136
P        4.3592877     -8.6202297      9.5012260
O        3.7551330     -7.7323977     10.6794154
C        2.9027954     -8.2767995     11.6868996
X        2.0712584     -7.1792422     12.3332997
X        2.1226045     -4.8260829     12.4593838
X        3.3799810     -2.6392713     10.8136809
P       -0.9813616     -7.5648878     10.0189568
O       -1.8006951     -6.2176621     10.0801506
C       -2.9045714     -6.0680184     10.9692488
X       -3.5037703     -4.6881564     10.8039787
X       -2.8140253     -2.6999745      9.7813763
X       -0.8461423     -2.1474357      7.5094516
P       -6.1123580     -5.4539270      8.1199144
O       -6.8391297     -4.1237457      7.5887635
C       -7.9072773     -3.5248656      8.3327985
X       -8.4824932     -2.3198051      7.5716855
X       -7.7972719     -0.8986541      5.8295025
X       -5.9369580     -1.2358785      3.4928549
P      -11.4142334     -4.2509812      5.9362682
O      -11.5015973     -4.0391851      4.3523370
C      -11.5950894     -2.7787971      3.6902682
X      -11.8927724     -2.9267019      2.1983865
X      -11.4464511     -4.5959258      0.5914953
X      -10.7626032     -7.5410796      0.6953637
P      -15.7184560     -2.2307139      2.3693858
O      -16.2005925     -1.1590300      1.2832653
C      -16.7172644     -1.4595476     -0.0074833
X      -16.9794520     -0.2069221     -0.7901720
X      -17.5326353      1.9865314     -0.2568938
X      -17.2799161      3.7889355      2.1175050
P      -13.6219627     -0.0027310     -2.7335366
O      -13.7454994     -0.2751152     -4.3144253
C      -12.7741210      0.2919562     -5.2052411
X      -12.9017675     -0.2320733     -6.6300990
X      -13.6706697     -2.2409496     -7.5769412
X      -15.3874796     -4.4904192     -6.4761686
P      -15.1980401      2.5635115     -7.9259768
O      -14.4612235      3.3671073     -9.0987867
C      -13.7501890      2.7358096    -10.1415723
X      -13.0517780      3.6881251    -11.0522904
X      -13.4115599      5.8791005    -11.6945766
X      -14.8293879      8.2368860    -10.3169347
P       -9.9561060      4.4348340     -8.8973806
O       -9.0968677      5.5993885     -9.5117284
C       -7.7925186      5.2993815     -9.9913743
X       -7.0461918      6.5997488    -10.2312787
X       -7.5154040      8.7335854    -11.0925849
X       -9.9490990      9.7271859    -11.2131633
X      -10.2517623     11.7489381    -11.9696226
P       -5.8037383      7.1955772     -6.6634775
O       -5.1454957      8.6414879     -6.5560437
C       -5.7760392      9.5567731     -5.6607380
X       -5.5864316      8.9972401     -4.2606198
X       -4.7921937      6.9367860     -3.4424715
X       -3.0474002      5.3800646     -4.6682596
X       -2.0807712      3.8024476     -3.4916787
P       -2.6220123     11.1233950     -3.0407521
O       -2.4410436     10.8745638     -1.4931548
C       -1.5833531     11.6655166     -0.6657039
X       -1.9232516     11.5947194      0.8267502
X       -3.5236748     12.6027560      2.2602678
X       -6.2399351     13.7580225      1.4675437
P        0.1636234      8.6187808      1.6439314
O        0.0106705      8.0083337      3.1798198
C       -0.1363190      8.9901676      4.2688905
X       -0.4980394      8.2821632      5.5691630
X       -1.1173291      6.1155835      6.0662584
X       -0.7446725      4.2471594      4.2545804
X        0.1741313      2.4032561      4.9615119
P        2.6950595      9.0131673      7.5362872
O        2.4791191      8.6169772      9.0540815
C        2.6534915      9.5280105     10.1516592
X        2.9537924      8.6779866     11.3732626
X        2.3361266      6.5186291     12.0416195
X        1.8278198      4.6378087     10.2806192
X        2.5143658      2.3941396     11.0389979
P        6.7188232      7.9852062     10.7678139
O        7.1126587      6.4971763     11.2226962
C        8.0460444      5.6811625     10.4849891
X        7.5937565      5.4251076      9.0512112
X        8.0151388      6.3757308      6.9515230
X       10.3530504      7.9532341      5.9094682
P        9.3834761      2.1337977      8.5745806
O        9.6467077      1.7325421      7.0583411
C       10.8460442      1.0561562      6.6583623
X       10.8496743      0.8645166      5.1477930
X       11.7393197      2.0304231      3.3158881
X       14.0420350      3.9445471      3.0130987
P       13.0927405     -2.2520908      4.7932623
O       13.7632424     -2.2408152      3.3436938
C       13.1671203     -2.9175488      2.2318844
X       13.9085767     -2.6143669      0.9419809
X       15.3919601     -0.9493640      0.2246862
X       17.1285676      0.1859937      1.8257548
X       18.9321733      1.2457444      0.5527831
   142
  Step:         1125 Total energy:    2294.4394614812491      Temperature:   0.61599999999999988     
O       -6.6127327     -3.0669146     -8.9192228
C       -6.9067371     -3.7385125    -10.1478002
X       -6.3950662     -2.9275350    -11.3260729
X       -5.7321775     -0.7036789    -11.6471348
X       -4.6164779      0.7156024     -9.7450443
X       -3.2979718      2.5579669    -10.6561316
P       -2.9147124     -4.4990963    -11.5959658
O       -1.8372788     -3.4725007    -12.1727868
C       -1.4551248     -3.3588643    -13.5541467
X       -0.3898769     -2.2887869    -13.6779716
X        0.1130673     -0.2312340    -12.6757092
X       -0.3725757      0.8463776    -10.3156006
X        1.2593368      2.5758081     -9.7073036
P        2.6760628     -4.4351398    -13.1340469
O        3.3327070     -4.1563873    -11.6959921
C        4.0689673     -2.9630766    -11.4081800
X        4.5246919     -3.0015412     -9.9622924
X        4.0517599     -4.3721971     -8.1323450
X        3.2420679     -6.8565172     -8.3456527
X        3.5282556     -8.1103918     -6.2614154
P        8.0282813     -4.4332365    -10.4339226
O        8.8758779     -4.2705432     -9.1098985
C       10.1807122     -4.9029232     -9.0109579
X       11.0044871     -4.3512883     -7.8237525
X       10.9843079     -2.4035120     -6.5302998
X        8.8133738     -1.0755935     -5.9706810
X        9.0467376      0.4280515     -4.0369269
P        9.7806831     -6.6319489     -5.0518209
O        9.9208709     -5.9095745     -3.6388750
C       11.2162660     -5.7263054     -3.0312905
X       10.9943160     -5.0516972     -1.6788851
X        9.1357082     -4.0645769     -0.6492202
X        6.1634371     -4.2804390     -1.2539672
P       11.1426319     -8.1761340      0.4452876
O       10.5464145     -7.9303555      1.8930656
C        9.3372903     -8.5291808      2.3886382
X        9.6040197     -9.5637009      3.4737809
X       11.4973765    -10.6502497      4.3387038
X       13.8838248     -9.5991739      4.5781959
X       14.8820785    -10.3938211      6.6627616
P        8.6601524     -7.4438213      6.5454340
O        9.0508217     -8.1709987      7.9136728
C        8.4346546     -9.3948974      8.3724207
X        8.0509577     -9.3337935      9.8486930
X        8.4559179     -7.8743900     11.6221792
X        8.8397210     -5.3047900     11.2165705
X        7.5002700     -3.9755094     12.7716828
P        4.3257899     -8.5924716      9.4490512
O        3.8055654     -7.7274741     10.7013320
C        2.9412627     -8.2277036     11.7287653
X        2.0285815     -7.1729754     12.3221171
X        2.1349035     -4.8368486     12.4780562
X        3.3710077     -2.6533067     10.8202326
P       -0.9622037     -7.5635723     10.0002732
O       -1.7992897     -6.2164483     10.0160741
C       -2.8699788     -6.0744053     10.9491707
X       -3.4654181     -4.6889016     10.8063700
X       -2.7969192     -2.6889001      9.7885518
X       -0.8360285     -2.1621489      7.4964998
P       -6.0987334     -5.4744611      8.0963364
O       -6.8917674     -4.1949355      7.5634243
C       -7.9037186     -3.4747902      8.2875332
X       -8.5266689     -2.3215113      7.5214142
X       -7.8202530     -0.9308532      5.7741046
X       -5.9141111     -1.2486849      3.4609834
P      -11.4391520     -4.2546784      5.9693048
O      -11.4568316     -4.0336891      4.3723471
C      -11.6038790     -2.7828665      3.7078045
X      -11.8817803     -2.9505621      2.2140852
X      -11.4086496     -4.6120315      0.6343707
X      -10.7639218     -7.5397719      0.7055572
P      -15.7367811     -2.2207029      2.3777843
O      -16.2205522     -1.1261412      1.3253722
C      -16.6754139     -1.4979361      0.0236914
X      -16.9859783     -0.2435847     -0.8138350
X      -17.5505670      2.0057019     -0.3122373
X      -17.3008615      3.7971878      2.0938813
P      -13.6334448     -0.0273673     -2.7501145
O      -13.7044162     -0.2925185     -4.3055228
C      -12.7501443      0.2824758     -5.1791899
X      -12.9515884     -0.2467160     -6.5907294
X      -13.6981200     -2.2463791     -7.5045439
X      -15.4021798     -4.4777296     -6.4694033
P      -15.1761447      2.5659143     -7.9123834
O      -14.4321085      3.4029147     -9.0685665
C      -13.7579244      2.7169565    -10.1397236
X      -13.0294214      3.7233595    -11.0825621
X      -13.4348079      5.9532879    -11.7556430
X      -14.8542094      8.2409902    -10.3100165
P       -9.9765050      4.3905762     -8.8764387
O       -9.0220891      5.5257565     -9.5287921
C       -7.7354903      5.2739500    -10.0537622
X       -6.9640660      6.5614980    -10.3156786
X       -7.5653418      8.6889827    -11.1011321
X       -9.9898086      9.7202466    -11.2241910
X      -10.2461783     11.7493584    -11.9608445
P       -5.8248970      7.2533495     -6.7337065
O       -5.1342928      8.6606204     -6.6235837
C       -5.7152301      9.5301639     -5.6813518
X       -5.5726464      8.9039872     -4.3099846
X       -4.7379579      6.9127406     -3.3754900
X       -3.0778127      5.3547717     -4.6697897
X       -2.0990169      3.8389016     -3.4388665
P       -2.6126320     11.1099987     -3.0471795
O       -2.5185046     10.8514296     -1.4533751
C       -1.5752604     11.5717459     -0.6665954
X       -1.9452862     11.6949104      0.8147955
X       -3.5198630     12.9012320      2.0648946
X       -6.2741174     13.8290600      1.4289313
P        0.1411702      8.6360493      1.6925101
O        0.1126037      8.2548813      3.1625418
C       -0.3462741      9.0137069      4.2178234
X       -0.4401908      8.1664802      5.4832741
X       -0.9882284      5.9609368      6.1854261
X       -0.7187531      4.2281496      4.2587319
X        0.1821114      2.3280225      4.9666627
P        2.6768545      8.9430602      7.5183435
O        2.5270108      8.5844627      9.0689396
C        2.6775121      9.5494765     10.1344667
X        2.9244439      8.7295014     11.4073180
X        2.3940787      6.5312274     12.0612650
X        1.8412007      4.6518757     10.3189582
X        2.4873623      2.3622318     10.9787866
P        6.7409581      8.0251572     10.8101220
O        7.1411389      6.5332088     11.1853340
C        8.0807128      5.7118688     10.4902195
X        7.6002826      5.4607769      9.0758061
X        8.0330944      6.3973443      6.9753293
X       10.3561177      7.9609925      5.8983132
P        9.3890316      2.1121695      8.5558266
O        9.6526814      1.7558201      7.0258234
C       10.8382826      1.0278912      6.6771000
X       10.8891592      0.8659039      5.1740149
X       11.7365830      2.0620451      3.3518385
X       14.0457111      3.9390780      3.0030837
P       13.0846724     -2.2509169      4.7668521
O       13.7491620     -2.2119412      3.3245390
C       13.1806529     -2.9433735      2.2386597
X       13.9277315     -2.6341670      0.9583525
X       15.4108600     -0.9709054      0.2404265
X       17.1230099      0.1983894      1.8421234
X       18.9284283      1.2479931      0.5609172
   142
  Step:         1150 Total energy:    2276.2319933244185      Temperature:   0.61599999999999977     
O       -6.6279260     -3.0808562     -8.8775748
C       -6.9405866     -3.6999778    -10.1320922
X       -6.4002445     -2.9030331    -11.3145686
X       -5.6811404     -0.7014898    -11.6690980
X       -4.6268921      0.7248586     -9.7406642
X       -3.2985389      2.5825206    -10.6438438
P       -2.9476508     -4.4766854    -11.5902054
O       -1.9079088     -3.4053458    -12.1250095
C       -1.4815807     -3.3538689    -13.4864847
X       -0.4217533     -2.2762324    -13.6588736
X        0.0768604     -0.1929471    -12.6972577
X       -0.3568694      0.8317919    -10.3178487
X        1.2706710      2.5737172     -9.7400119
P        2.6848940     -4.3995769    -13.1340620
O        3.3038556     -4.1007576    -11.7089589
C        4.0463907     -2.9245773    -11.3819600
X        4.5257417     -2.9809623     -9.9300382
X        4.0432708     -4.3486798     -8.0820395
X        3.2292590     -6.8337358     -8.3402594
X        3.5428789     -8.1150490     -6.2621665
P        8.0185272     -4.4136935    -10.4007801
O        8.8972592     -4.3159938     -9.0635440
C       10.1968924     -4.9040909     -9.0016642
X       11.0064709     -4.3487304     -7.8648847
X       10.9902876     -2.4403931     -6.5169815
X        8.8041198     -1.0598456     -5.9578501
X        9.0278872      0.4488000     -4.0394636
P        9.7854596     -6.6531608     -5.0650797
O        9.9413662     -5.9587079     -3.6524061
C       11.2031922     -5.6852009     -3.0738308
X       10.9825979     -5.0657357     -1.7166251
X        9.1621340     -4.0319132     -0.6520459
X        6.1567040     -4.2750413     -1.2724378
P       11.1519713     -8.1862214      0.4898897
O       10.4700614     -7.8711747      1.9189413
C        9.3073734     -8.5623429      2.3756811
X        9.5972133     -9.5630224      3.4703393
X       11.4749704    -10.6691191      4.3304902
X       13.8617649     -9.6089711      4.5909567
X       14.8828772    -10.3964407      6.6807409
P        8.6291351     -7.4721191      6.5750191
O        9.0690484     -8.1845370      7.9246690
C        8.3965892     -9.3694609      8.3699028
X        8.0483112     -9.3312392      9.8578572
X        8.4306703     -7.8753439     11.6407141
X        8.8165941     -5.3181296     11.2114025
X        7.4982112     -3.9645426     12.7723408
P        4.2999981     -8.5529220      9.4311014
O        3.7965147     -7.7169450     10.6862947
C        2.9570361     -8.2657665     11.6987381
X        2.1133122     -7.1597476     12.3484046
X        2.0363843     -4.8073349     12.4628028
X        3.3606636     -2.6727936     10.8299784
P       -0.9076059     -7.5675559      9.9779253
O       -1.8380781     -6.2623089      9.9497860
C       -2.8784903     -6.0473850     10.9115155
X       -3.4746263     -4.6548799     10.7915923
X       -2.7742163     -2.6585231      9.7964354
X       -0.8259271     -2.1787611      7.4821991
P       -6.1022856     -5.4996961      8.0800752
O       -6.9114808     -4.2148170      7.5495991
C       -7.9114275     -3.4889390      8.2916573
X       -8.5062260     -2.3532312      7.4722814
X       -7.8516131     -0.9755970      5.6813067
X       -5.8898959     -1.2639430      3.4345364
P      -11.4466380     -4.2377176      5.9717847
O      -11.4658697     -4.0608885      4.3955290
C      -11.6014064     -2.7828190      3.7678837
X      -11.9261794     -2.9663912      2.2809913
X      -11.4036603     -4.5818154      0.6376423
X      -10.7674880     -7.5432609      0.7195727
P      -15.7226881     -2.2322421      2.4009023
O      -16.1761757     -1.1220432      1.3320437
C      -16.6603240     -1.4698251      0.0254851
X      -16.9634517     -0.2500554     -0.8340009
X      -17.5593830      1.9795268     -0.3429077
X      -17.3214209      3.7957905      2.0633066
P      -13.6347054     -0.0570145     -2.7047235
O      -13.7295485     -0.2984841     -4.2935373
C      -12.7338617      0.2762414     -5.1423482
X      -12.9578576     -0.2313100     -6.5600210
X      -13.7048538     -2.2451839     -7.5280925
X      -15.4232138     -4.4772961     -6.4555756
P      -15.1466623      2.5854093     -7.9085610
O      -14.4275937      3.3872458     -9.0774291
C      -13.6798611      2.7703897    -10.1170470
X      -13.0805922      3.7703260    -11.0867912
X      -13.4193644      5.9953122    -11.7419997
X      -14.8795822      8.2405520    -10.3029434
P       -9.9701192      4.3542642     -8.8801253
O       -8.9788718      5.4238444     -9.5443915
C       -7.6624730      5.2083678    -10.0661690
X       -6.9414071      6.5404409    -10.3921175
X       -7.5989751      8.6660730    -11.1773946
X      -10.0345764      9.6907067    -11.2263405
X      -10.2309069     11.7561507    -11.9479233
P       -5.8326466      7.2535738     -6.8376996
O       -5.1405477      8.6916682     -6.7036143
C       -5.6062745      9.5546604     -5.6568773
X       -5.5222973      8.9328641     -4.2703745
X       -4.7953149      6.8842259     -3.3876971
X       -3.0897248      5.3236555     -4.6578027
X       -2.1165762      3.8721255     -3.3916570
P       -2.6596010     11.0275156     -3.0233120
O       -2.5785402     10.9149684     -1.4405384
C       -1.5925630     11.6412098     -0.7531487
X       -1.8728082     11.8192866      0.7149678
X       -3.4601167     13.0563978      1.9403421
X       -6.3153109     13.9015365      1.3902552
P        0.1295636      8.6601844      1.6612411
O        0.2234189      8.3538729      3.2882316
C       -0.5284561      8.9863928      4.3299841
X       -0.4978039      8.1856031      5.5736510
X       -0.8198563      5.9369156      6.1491103
X       -0.6794672      4.1239107      4.2920189
X        0.1800271      2.2866014      4.9455602
P        2.6797436      8.8973302      7.4919433
O        2.5293727      8.5733069      9.0517148
C        2.7420437      9.4698871     10.1332520
X        2.9905875      8.6942535     11.4025420
X        2.4008905      6.5408931     12.1189332
X        1.8723313      4.6502680     10.3539619
X        2.4537502      2.3536591     10.9249236
P        6.7373089      8.0755008     10.8525345
O        7.1294937      6.5602620     11.2164598
C        8.1040050      5.7873678     10.4949312
X        7.6234816      5.4703082      9.0822121
X        8.0340448      6.4031407      6.9675813
X       10.3629487      7.9679736      5.8882040
P        9.3825566      2.0825529      8.5610328
O        9.7189460      1.7801344      7.0400434
C       10.8608396      1.0026674      6.6703890
X       10.8584362      0.8582336      5.1635536
X       11.7364256      2.0608782      3.3538551
X       14.0539429      3.9354901      2.9954182
P       13.0694269     -2.2238670      4.7652884
O       13.7398129     -2.2294683      3.3209293
C       13.1964993     -2.9775925      2.2327980
X       13.9493689     -2.6655552      0.9530321
X       15.4338361     -0.9934255      0.2552371
X       17.1201561      0.2100488      1.8614102
X       18.9256990      1.2489190      0.5731969
   142
  Step:         1175 Total energy:    2270.9927564531790      Temperature:   0.61599999999999977     
O       -6.6363290     -3.0862445     -8.8663983
C       -6.9620167     -3.6859804    -10.1212727
X       -6.4224581     -2.8810108    -11.2950933
X       -5.6731752     -0.6920186    -11.6695675
X       -4.6291344      0.7375664     -9.7391075
X       -3.3022556      2.5980564    -10.6272274
P       -2.9896806     -4.4645136    -11.5760701
O       -1.9422441     -3.3557692    -12.0689762
C       -1.5068367     -3.3211459    -13.4218231
X       -0.4587186     -2.2396335    -13.6553168
X        0.0714975     -0.1400795    -12.7267505
X       -0.3470800      0.8109217    -10.3219549
X        1.2776748      2.5638325     -9.7754457
P        2.6873298     -4.3682328    -13.1329618
O        3.3241778     -4.0668323    -11.6880903
C        4.0690131     -2.8967358    -11.3331416
X        4.5067801     -2.9775901     -9.8829397
X        3.9822037     -4.3298371     -8.0412269
X        3.2230724     -6.8177735     -8.3234494
X        3.5543846     -8.1128949     -6.2757819
P        8.0115103     -4.3983595    -10.3770919
O        8.9055220     -4.3408470     -9.0628560
C       10.2046155     -4.9182333     -8.9949441
X       11.0229805     -4.3546550     -7.8383388
X       10.9613040     -2.4066700     -6.5162121
X        8.7929409     -1.0516081     -5.9530001
X        9.0164879      0.4605560     -4.0416261
P        9.7835068     -6.6952414     -5.1113773
O        9.9563570     -6.0147558     -3.6664332
C       11.2060391     -5.6813496     -3.0633947
X       10.9685007     -5.0333489     -1.7185778
X        9.1387805     -4.0260095     -0.6846798
X        6.1571431     -4.2713024     -1.2874208
P       11.1485346     -8.1822381      0.5499251
O       10.4357499     -7.8639782      1.9267132
C        9.2633338     -8.5385974      2.3804726
X        9.5584504     -9.5861447      3.4706185
X       11.4572180    -10.6579591      4.3408495
X       13.8427557     -9.6263668      4.6105257
X       14.8849837    -10.3973588      6.6903134
P        8.6133146     -7.4992798      6.5731051
O        9.0317811     -8.2095063      7.9477768
C        8.4255763     -9.4207481      8.3780363
X        8.0027386     -9.3356035      9.8391362
X        8.4280467     -7.8831982     11.6340926
X        8.7925866     -5.3271461     11.2087234
X        7.4977606     -3.9566316     12.7734642
P        4.3180870     -8.5298735      9.4266109
O        3.7453563     -7.6545621     10.6306535
C        3.0204630     -8.2191224     11.7342148
X        2.0880332     -7.1881240     12.3526683
X        2.0076124     -4.8526309     12.4484839
X        3.3477980     -2.6924651     10.8349984
P       -0.8582030     -7.5657320      9.9560121
O       -1.8424870     -6.3092754      9.9472889
C       -2.8974982     -6.0466220     10.8798717
X       -3.4905234     -4.6394179     10.7235783
X       -2.7754115     -2.6145809      9.7791089
X       -0.8180708     -2.1943523      7.4656819
P       -6.1259407     -5.5116766      8.0777694
O       -6.8671413     -4.2175133      7.5381477
C       -7.8835781     -3.5342317      8.2767001
X       -8.4806287     -2.3843025      7.4665314
X       -7.8434968     -1.0233286      5.6481997
X       -5.8639275     -1.2814095      3.4081600
P      -11.4437891     -4.2316198      5.9793743
O      -11.5301204     -4.0984498      4.4006096
C      -11.6734682     -2.8211822      3.7709998
X      -11.9235307     -2.9842747      2.3033312
X      -11.4562120     -4.6185721      0.7099551
X      -10.7755811     -7.5362796      0.7326167
P      -15.7015012     -2.2406875      2.4162460
O      -16.0952345     -1.1627565      1.3030446
C      -16.6469040     -1.4613208      0.0150315
X      -16.9477949     -0.2227695     -0.7861272
X      -17.5535116      1.9728539     -0.3424486
X      -17.3421540      3.7842438      2.0261382
P      -13.6171815     -0.0942027     -2.6519384
O      -13.7631315     -0.2749753     -4.2246453
C      -12.7930630      0.2481388     -5.1439378
X      -12.9184285     -0.2567436     -6.5631322
X      -13.7453984     -2.2395503     -7.5192520
X      -15.4405709     -4.4779675     -6.4442271
P      -15.1314234      2.6056316     -7.8970694
O      -14.4465516      3.4213377     -9.1002248
C      -13.7090140      2.7910547    -10.1616783
X      -13.0012481      3.7622734    -11.0460960
X      -13.4092838      5.9655537    -11.7319567
X      -14.9092238      8.2467663    -10.2914271
P       -9.9254266      4.3176061     -8.9234469
O       -8.9700895      5.3936735     -9.5993393
C       -7.6303212      5.1660426    -10.0892508
X       -7.0028653      6.5065269    -10.4315854
X       -7.6731956      8.5778914    -11.2811253
X      -10.0647420      9.6714108    -11.2348321
X      -10.2116795     11.7382955    -11.9230467
P       -5.8065580      7.2516301     -6.9277238
O       -5.1754198      8.6884796     -6.6968278
C       -5.5554253      9.6111255     -5.6671074
X       -5.5087743      8.9507153     -4.2947830
X       -4.9011059      6.8502253     -3.4773207
X       -3.1083871      5.3203564     -4.6466558
X       -2.1148338      3.8719824     -3.3390581
P       -2.7082172     10.9317288     -3.0004203
O       -2.6151332     11.0213597     -1.4221447
C       -1.5464588     11.8033433     -0.8779134
X       -1.7736680     11.9912898      0.6076230
X       -3.4808375     13.0429734      1.8681232
X       -6.3381613     13.9621795      1.3554191
P        0.0969649      8.6768367      1.7366262
O        0.2807129      8.4692643      3.2887980
C       -0.5279597      9.0649659      4.3728369
X       -0.6651333      8.2322411      5.6896179
X       -0.7421969      5.9314758      6.1734136
X       -0.6719191      4.0487272      4.2996279
X        0.2153399      2.1784106      4.9372743
P        2.7011564      8.8984942      7.4649490
O        2.5195804      8.5252814      9.0201176
C        2.8241392      9.4092394     10.1026192
X        3.0590831      8.5912065     11.3762083
X        2.3959129      6.4803531     12.1851979
X        1.9005971      4.6738957     10.3631531
X        2.4296167      2.3349011     10.8986881
P        6.7377327      8.0995578     10.8929549
O        7.1378957      6.6009949     11.2390028
C        8.0839741      5.8110495     10.5105172
X        7.6624153      5.5089964      9.0759188
X        8.0535866      6.3816600      6.9347281
X       10.3683036      7.9712596      5.8792965
P        9.3685087      2.0635962      8.5999149
O        9.7857349      1.8043531      7.0786118
C       10.8810895      0.9942642      6.6334970
X       10.8197600      0.8579358      5.1199219
X       11.7376820      2.0454444      3.3144089
X       14.0621924      3.9304027      2.9892867
P       13.0550427     -2.1964523      4.7763214
O       13.7292792     -2.2634318      3.3246252
C       13.2063228     -3.0131478      2.2218392
X       13.9737971     -2.7030286      0.9426374
X       15.4532983     -1.0144743      0.2688951
X       17.1177177      0.2176145      1.8773681
X       18.9247596      1.2491198      0.5866205
   142
  Step:         1200 Total energy:    2274.1687175712714      Temperature:   0.61599999999999988     
O       -6.6329460     -3.0691468     -8.8650843
C       -6.9856264     -3.6779864    -10.1115766
X       -6.4646109     -2.8707679    -11.2923047
X       -5.7317806     -0.6701598    -11.6339547
X       -4.6215051      0.7543506     -9.7344414
X       -3.3035710      2.6133174    -10.6070640
P       -3.0220555     -4.4370060    -11.5506116
O       -1.9397883     -3.3631638    -12.0245002
C       -1.5388424     -3.2553133    -13.3883207
X       -0.4682514     -2.2067756    -13.6327569
X        0.0835758     -0.1054505    -12.7545717
X       -0.3387572      0.7923178    -10.3300816
X        1.2845848      2.5526031     -9.8100002
P        2.6907763     -4.3147850    -13.1049242
O        3.3539267     -4.0643146    -11.6793162
C        4.0853255     -2.8929541    -11.2925231
X        4.5046838     -2.9539572     -9.8279865
X        3.9035638     -4.2894533     -7.9896947
X        3.2168932     -6.8030272     -8.3128222
X        3.5698854     -8.1116692     -6.2829772
P        8.0118531     -4.3911380    -10.3730536
O        8.9146889     -4.3245627     -9.0481180
C       10.2226800     -4.9132669     -8.9800790
X       11.0215473     -4.3516857     -7.7909785
X       10.9513269     -2.3595853     -6.5251938
X        8.7747517     -1.0460943     -5.9589523
X        9.0152677      0.4713425     -4.0377690
P        9.7971454     -6.7383286     -5.1384407
O        9.9557992     -6.0854171     -3.6923801
C       11.2144575     -5.7326409     -3.0715851
X       10.9818220     -5.0419271     -1.7022106
X        9.1413835     -3.9860385     -0.6718550
X        6.1537743     -4.2662995     -1.3017605
P       11.1462792     -8.1456374      0.5822819
O       10.4182187     -7.8723944      1.9945246
C        9.2179498     -8.5301445      2.4206401
X        9.5038513     -9.5966596      3.4739009
X       11.4085901    -10.6349771      4.3575738
X       13.8289556     -9.6411045      4.6310907
X       14.8913594    -10.3968090      6.6995204
P        8.6076370     -7.5238377      6.5584429
O        8.9769211     -8.2455801      7.9303607
C        8.4211681     -9.4706103      8.3929264
X        8.0086063     -9.3837366      9.8507302
X        8.4016274     -7.8813004     11.6098348
X        8.7743707     -5.3278820     11.2060598
X        7.5005239     -3.9493122     12.7776261
P        4.3372379     -8.5077215      9.4201523
O        3.7081113     -7.6023671     10.5866394
C        3.0552382     -8.1683623     11.7349258
X        2.0746711     -7.1943505     12.3490574
X        1.9998222     -4.8673204     12.4611955
X        3.3327097     -2.7123992     10.8387969
P       -0.8398195     -7.5759314      9.9297028
O       -1.7911258     -6.2732819      9.9620313
C       -2.9031821     -6.0616605     10.8429993
X       -3.4828074     -4.6614724     10.6665994
X       -2.8054957     -2.6273631      9.7187777
X       -0.8083603     -2.2044111      7.4464952
P       -6.1425936     -5.5308213      8.0879342
O       -6.8092418     -4.1969856      7.5074029
C       -7.8409260     -3.5383714      8.2367987
X       -8.4613128     -2.4024778      7.4633267
X       -7.7647525     -1.0737971      5.6763497
X       -5.8345448     -1.2984598      3.3837923
P      -11.4480211     -4.2583787      6.0034220
O      -11.6003660     -4.1147379      4.4255171
C      -11.7012730     -2.8278772      3.8062055
X      -11.9550271     -2.9596498      2.3191874
X      -11.5104633     -4.6087130      0.6843113
X      -10.7795716     -7.5417606      0.7472459
P      -15.6688761     -2.2469003      2.4072406
O      -16.0365517     -1.1442362      1.3140495
C      -16.6634714     -1.5219304      0.0739055
X      -16.9122910     -0.2625928     -0.7921186
X      -17.5798541      1.9904979     -0.4327292
X      -17.3642294      3.7867039      2.0098902
P      -13.5845390     -0.1319401     -2.6159373
O      -13.7490904     -0.2942796     -4.2187171
C      -12.7614328      0.2464643     -5.1275689
X      -12.9601177     -0.2633887     -6.5419938
X      -13.7499470     -2.2575383     -7.5192321
X      -15.4554577     -4.4752005     -6.4341818
P      -15.1159214      2.6357619     -7.8950212
O      -14.4535009      3.4176286     -9.1067303
C      -13.7026883      2.7301149    -10.1418614
X      -13.0068473      3.7640472    -11.0508539
X      -13.3898969      6.0069788    -11.6378658
X      -14.9338300      8.2485324    -10.2831161
P       -9.8482770      4.2689811     -8.9747500
O       -9.0047240      5.4204777     -9.6547308
C       -7.6786840      5.1514172    -10.1382257
X       -7.0056629      6.4452697    -10.4787824
X       -7.7214207      8.4865367    -11.3888067
X      -10.0982450      9.6537407    -11.2477132
X      -10.1880475     11.7185500    -11.8904070
P       -5.7600492      7.2518125     -6.9503628
O       -5.1446898      8.7216529     -6.7510500
C       -5.6160167      9.6173599     -5.7325523
X       -5.6286054      8.9229321     -4.3682589
X       -4.9889124      6.8222976     -3.5474617
X       -3.1152940      5.3085310     -4.6207448
X       -2.1127814      3.8749321     -3.3002750
P       -2.6916291     10.8676289     -2.9898636
O       -2.6167084     11.1659348     -1.4241955
C       -1.4887702     11.9460011     -0.9210280
X       -1.7294231     12.1599364      0.5601885
X       -3.5526142     12.9911285      1.7601141
X       -6.3296446     14.0098158      1.3253703
P        0.0256102      8.7441255      1.8374130
O        0.2281569      8.5751097      3.4221775
C       -0.5486808      9.1972938      4.4612370
X       -0.6627033      8.2256866      5.6456325
X       -0.8660232      5.9666209      6.0657668
X       -0.6578111      3.9998876      4.3297947
X        0.2678603      2.0507186      4.9303785
P        2.6787060      8.9177490      7.4445011
O        2.5749684      8.4544483      8.9581377
C        2.8680855      9.3084194     10.0750295
X        3.0567321      8.5257045     11.3781844
X        2.4359262      6.4294946     12.2249279
X        1.9256440      4.6879655     10.3461304
X        2.4132000      2.3317691     10.8941018
P        6.7752931      8.1100877     10.9251421
O        7.1955811      6.5961254     11.2476189
C        8.1490521      5.8243272     10.4932745
X        7.6538786      5.5093602      9.0835145
X        8.0866075      6.3564346      6.9411204
X       10.3800621      7.9775557      5.8693550
P        9.3697209      2.0600670      8.6481460
O        9.7951311      1.8452956      7.1136079
C       10.8584662      1.0164111      6.6076020
X       10.8356913      0.8898425      5.0808148
X       11.7393001      2.0494349      3.2528981
X       14.0698451      3.9224524      2.9857011
P       13.0503916     -2.1875065      4.7762761
O       13.7151392     -2.2784914      3.3287343
C       13.2110024     -3.0424294      2.2308547
X       14.0034738     -2.7318673      0.9665180
X       15.4737305     -1.0384666      0.2832577
X       17.1162381      0.2235039      1.8906474
X       18.9292084      1.2529680      0.6031986
   142
  Step:         1225 Total energy:    2287.3292703354373      Temperature:   0.61599999999999999     
O       -6.6301368     -3.0429801     -8.8765714
C       -7.0071000     -3.6738475    -10.1056417
X       -6.5100947     -2.8534427    -11.2858255
X       -5.8057268     -0.6373869    -11.5939168
X       -4.6196213      0.7617879     -9.7180583
X       -3.2954760      2.6362595    -10.5928176
P       -3.0342927     -4.4101446    -11.5178946
O       -1.9239620     -3.3727812    -12.0009728
C       -1.5606488     -3.2325628    -13.3883689
X       -0.4708866     -2.1866255    -13.5961691
X        0.1206709     -0.0848299    -12.7683509
X       -0.3317686      0.7819371    -10.3406158
X        1.2914403      2.5426043     -9.8377654
P        2.6980798     -4.2638489    -13.0715368
O        3.3713552     -4.0538095    -11.6383208
C        4.0906148     -2.8735742    -11.2549911
X        4.5028007     -2.9526969     -9.7899640
X        3.8642630     -4.2705385     -7.9648229
X        3.2078192     -6.7800664     -8.3114051
X        3.5899943     -8.1159730     -6.2792113
P        8.0242779     -4.3897621    -10.3604231
O        8.9299012     -4.2865277     -9.0516613
C       10.2164955     -4.8830810     -8.9348714
X       11.0015079     -4.3091985     -7.7955482
X       10.9740312     -2.3555089     -6.5114467
X        8.7509301     -1.0310577     -5.9620480
X        9.0199525      0.4705428     -4.0407855
P        9.8280580     -6.7844599     -5.1313117
O        9.9591180     -6.1448500     -3.6689744
C       11.1873841     -5.7853885     -3.0304046
X       10.9442669     -5.0863542     -1.7181065
X        9.1459080     -4.0104390     -0.7048276
X        6.1581684     -4.2594256     -1.3128496
P       11.1303062     -8.1010012      0.6260202
O       10.4173845     -7.8696075      2.0335831
C        9.2167639     -8.5430803      2.4275475
X        9.4720111     -9.5930789      3.4879345
X       11.3706304    -10.6225352      4.3881667
X       13.8086276     -9.6512053      4.6428198
X       14.9010365    -10.3997404      6.7137583
P        8.5944783     -7.5447450      6.5435134
O        8.9576505     -8.2850845      7.9190210
C        8.3665515     -9.5220846      8.3849193
X        8.0399911     -9.4437610      9.8764792
X        8.3685306     -7.8873751     11.6096862
X        8.7636731     -5.3213623     11.1983828
X        7.5038120     -3.9435248     12.7867039
P        4.3387458     -8.4860979      9.4054478
O        3.7419055     -7.6034981     10.5802281
C        3.0294922     -8.2054192     11.6559714
X        2.1352654     -7.1593211     12.3423124
X        1.9555027     -4.8102658     12.5161321
X        3.3159013     -2.7317198     10.8409970
P       -0.8564632     -7.5718262      9.9122843
O       -1.6981671     -6.2326890      9.9477794
C       -2.8501401     -6.0838652     10.7863577
X       -3.4829061     -4.7094262     10.6702536
X       -2.8419016     -2.7022396      9.6507863
X       -0.7965052     -2.2086499      7.4215990
P       -6.1487199     -5.5445435      8.0871226
O       -6.7873081     -4.2087279      7.5042116
C       -7.8250576     -3.5740812      8.2434536
X       -8.4060189     -2.4125756      7.4399017
X       -7.7030676     -1.0312630      5.6786356
X       -5.8007946     -1.3164213      3.3608183
P      -11.4636236     -4.3165642      6.0374591
O      -11.6466553     -4.0814479      4.4699474
C      -11.6680936     -2.8198373      3.8116343
X      -11.9506899     -2.9925822      2.3181812
X      -11.5074799     -4.6372999      0.6898607
X      -10.7842372     -7.5439413      0.7617815
P      -15.6453635     -2.2417896      2.3927265
O      -16.0663286     -1.1067313      1.3443680
C      -16.6615027     -1.4460521      0.0989210
X      -16.9461499     -0.2606495     -0.7834368
X      -17.5033138      1.9466861     -0.3524978
X      -17.3909593      3.7825611      1.9878476
P      -13.5415287     -0.1777147     -2.6286459
O      -13.6654257     -0.3422915     -4.2004152
C      -12.7321311      0.2343412     -5.1093206
X      -13.0145500     -0.2491756     -6.5246500
X      -13.7436486     -2.2540994     -7.5066954
X      -15.4682391     -4.4729283     -6.4252688
P      -15.1150009      2.6609197     -7.8793115
O      -14.4147425      3.3736636     -9.1220387
C      -13.6725795      2.7119046    -10.1167401
X      -13.0502331      3.7268801    -11.0491377
X      -13.3457570      5.9915567    -11.5736026
X      -14.9582992      8.2545553    -10.2707119
P       -9.8078336      4.2157136     -9.0378450
O       -8.9909695      5.4226786     -9.6624659
C       -7.6939783      5.1431651    -10.1587736
X       -7.0049026      6.4281562    -10.5647551
X       -7.7575320      8.4786970    -11.4387397
X      -10.1141362      9.6039974    -11.2614962
X      -10.1647524     11.7196754    -11.8589954
P       -5.6949316      7.2610706     -6.9486218
O       -5.1301790      8.7336305     -6.8237779
C       -5.7575020      9.5374262     -5.8267059
X       -5.7485900      8.9064112     -4.4351150
X       -5.0276020      6.8304764     -3.5971957
X       -3.1200935      5.2858689     -4.5870039
X       -2.1138837      3.8853351     -3.2743839
P       -2.6160917     10.8367819     -3.0011624
O       -2.5921462     11.3004508     -1.4904937
C       -1.4802028     12.0020580     -0.9380495
X       -1.6966663     12.1413272      0.5532464
X       -3.4673153     13.0777527      1.8374409
X       -6.3205886     14.0456169      1.2940296
P       -0.0904022      8.8723716      1.9199579
O        0.1557249      8.6993209      3.5031270
C       -0.6108556      9.2591412      4.5022069
X       -0.5994099      8.2892792      5.6779096
X       -1.0447727      5.9879326      5.9647802
X       -0.6131929      3.8720754      4.3590525
X        0.2968204      2.0069603      4.9143124
P        2.6325106      8.9462295      7.4224258
O        2.6582030      8.3534130      8.9285995
C        2.7951282      9.2274782     10.0769766
X        3.0664011      8.5021148     11.3734586
X        2.4818789      6.4098663     12.2197493
X        1.9489118      4.6694905     10.3113300
X        2.4015351      2.3534101     10.9036092
P        6.8435623      8.0850463     10.9543657
O        7.2839012      6.5942479     11.2531108
C        8.2035477      5.8197401     10.4786236
X        7.6805358      5.4836448      9.0936754
X        8.1115013      6.3527918      6.9598504
X       10.3956697      7.9813018      5.8597044
P        9.3942262      2.0769235      8.6655128
O        9.7477901      1.8644760      7.1136836
C       10.8613563      1.0997532      6.6131528
X       10.8360029      0.9280620      5.0877690
X       11.7229789      2.0590894      3.2285026
X       14.0801025      3.9142707      2.9830478
P       13.0452735     -2.1985217      4.7727963
O       13.7244069     -2.2592624      3.3312807
C       13.2203096     -3.0545805      2.2548315
X       14.0256145     -2.7662309      1.0019903
X       15.4881082     -1.0725867      0.3088241
X       17.1172721      0.2278474      1.9003169
X       18.9364463      1.2580572      0.6231870
   142
  Step:         1250 Total energy:    2271.3053838067472      Temperature:   0.61600000000000077     
O       -6.6442828     -3.0202887     -8.8873596
C       -7.0272329     -3.6538926    -10.1081855
X       -6.5331313     -2.8232400    -11.2765755
X       -5.8427044     -0.6016098    -11.5686753
X       -4.6236779      0.7783133     -9.6988007
X       -3.2930200      2.6513909    -10.5816073
P       -3.0335382     -4.3904866    -11.4854012
O       -1.9363510     -3.3489936    -11.9892055
C       -1.5509575     -3.2352568    -13.3705583
X       -0.4657019     -2.1898499    -13.6009063
X        0.1434078     -0.0971925    -12.7718927
X       -0.3299473      0.7827643    -10.3543107
X        1.2969450      2.5387946     -9.8587460
P        2.7113451     -4.2326661    -13.0392053
O        3.3483417     -4.0090468    -11.5928707
C        4.0848880     -2.8466075    -11.2268091
X        4.5125803     -2.9482701     -9.7732837
X        3.8848903     -4.2598130     -7.9386485
X        3.1928635     -6.7686613     -8.3002102
X        3.6074758     -8.1108552     -6.2899369
P        8.0242738     -4.3869957    -10.3487764
O        8.9153902     -4.2107920     -9.0492262
C       10.2118520     -4.8436177     -8.9522727
X       10.9968227     -4.2850960     -7.7645746
X       10.9275196     -2.3332944     -6.4885032
X        8.7318533     -1.0145975     -5.9694549
X        9.0238328      0.4651438     -4.0485716
P        9.8730604     -6.8255032     -5.1086714
O        9.9288256     -6.1996306     -3.6463824
C       11.1735262     -5.8645823     -3.0322559
X       10.9383592     -5.1348853     -1.7236008
X        9.1411463     -4.0254497     -0.7088365
X        6.1549326     -4.2501981     -1.3271524
P       11.1195905     -8.0809758      0.6692250
O       10.3976228     -7.8205494      2.0604810
C        9.2057985     -8.5432212      2.4088860
X        9.4852111     -9.6005148      3.4859280
X       11.3691393    -10.6402936      4.4432552
X       13.7820422     -9.6610546      4.6564964
X       14.9016452    -10.4006158      6.7159040
P        8.5682738     -7.5686219      6.5563026
O        8.9421185     -8.3238139      7.9058859
C        8.3673490     -9.5563522      8.3962703
X        7.9938238     -9.4447110      9.8693385
X        8.3822232     -7.8908184     11.5663507
X        8.7480212     -5.3179232     11.1872614
X        7.5067121     -3.9402015     12.7941302
P        4.3607877     -8.4879578      9.3670268
O        3.8220947     -7.5997261     10.5888144
C        3.0284255     -8.1466743     11.6440368
X        2.0887591     -7.1620712     12.3064416
X        2.0086602     -4.8411181     12.5527313
X        3.2926052     -2.7474685     10.8373459
P       -0.8421636     -7.5537036      9.9184066
O       -1.6796152     -6.1939013      9.9078949
C       -2.8154679     -6.1241262     10.7769770
X       -3.4532707     -4.7587718     10.6523302
X       -2.8446617     -2.7601321      9.5918040
X       -0.7917820     -2.2077250      7.3898661
P       -6.1353676     -5.5742780      8.0762586
O       -6.7990163     -4.2554609      7.5078887
C       -7.8103326     -3.5496662      8.2259158
X       -8.3921051     -2.4063551      7.3975020
X       -7.6476011     -1.0203121      5.6634509
X       -5.7677339     -1.3335264      3.3395921
P      -11.4649338     -4.3554597      6.0683425
O      -11.6949672     -4.0765225      4.4990919
C      -11.6011803     -2.8332144      3.8096985
X      -11.9049663     -3.0053061      2.3281444
X      -11.4796484     -4.6281648      0.6963000
X      -10.7926268     -7.5515014      0.7740065
P      -15.6563392     -2.2203253      2.3865021
O      -16.1087428     -1.0897225      1.3536110
C      -16.6629310     -1.4880648      0.1119551
X      -16.9100220     -0.2921892     -0.7891863
X      -17.5147863      1.9721839     -0.4420931
X      -17.4199264      3.7912394      1.9807668
P      -13.4996930     -0.2247635     -2.6183083
O      -13.6183707     -0.4142436     -4.2052660
C      -12.7601002      0.2466058     -5.1233146
X      -12.9903759     -0.2508204     -6.5417438
X      -13.7973279     -2.2230915     -7.4798845
X      -15.4811680     -4.4711965     -6.4195279
P      -15.1264729      2.6748050     -7.8488202
O      -14.3916100      3.3740053     -9.1103046
C      -13.7057667      2.6888033    -10.1476154
X      -12.9883387      3.6907748    -11.0324784
X      -13.4060204      5.9389335    -11.5431565
X      -14.9814235      8.2605323    -10.2584963
P       -9.8197192      4.1572340     -9.1094694
O       -8.9318922      5.3728660     -9.6506007
C       -7.6621054      5.1382224    -10.2120826
X       -6.9877204      6.4582511    -10.5662330
X       -7.7225213      8.5078085    -11.4681561
X      -10.1252383      9.5777208    -11.2918424
X      -10.1488734     11.6981618    -11.8175904
P       -5.6270020      7.2275041     -7.0164334
O       -5.1874069      8.7496668     -6.8135313
C       -5.8821686      9.5601877     -5.8750132
X       -5.7544978      8.9070972     -4.4995485
X       -5.0113438      6.8553772     -3.6025622
X       -3.1476013      5.2808652     -4.5745899
X       -2.1090205      3.8851776     -3.2391023
P       -2.5343330     10.8058494     -3.0885888
O       -2.6153233     11.3869411     -1.5652815
C       -1.4899690     11.9209623     -0.8560375
X       -1.8057730     12.1951279      0.6084731
X       -3.4763546     13.2654186      1.8497467
X       -6.2790957     14.0637647      1.2646296
P       -0.2203707      8.9896706      1.9472327
O        0.0993696      8.8727892      3.4949646
C       -0.5927119      9.3283561      4.6356372
X       -0.7730139      8.2466436      5.7312429
X       -0.9708344      5.8925253      5.8483208
X       -0.6231388      3.8115741      4.3482395
X        0.3540059      1.9518661      4.9368501
P        2.6168831      8.9712767      7.4501539
O        2.6947507      8.3356625      8.9006151
C        2.7299789      9.2107178     10.0367024
X        3.0699064      8.4494188     11.3188130
X        2.5161378      6.3372175     12.1740961
X        1.9640561      4.6664489     10.2614327
X        2.3978479      2.3576993     10.9287027
P        6.9123253      8.0663617     10.9636521
O        7.3570881      6.5530642     11.2930554
C        8.2605776      5.7586159     10.5054802
X        7.7521740      5.4982126      9.0926866
X        8.1307210      6.3726359      6.9465865
X       10.4132475      7.9809819      5.8467901
P        9.4325285      2.1133061      8.6415255
O        9.6919661      1.8217276      7.0931289
C       10.8919746      1.2010502      6.6197169
X       10.8205916      0.9807398      5.1178031
X       11.7176035      2.0810482      3.2590677
X       14.0864870      3.9044859      2.9776530
P       13.0279611     -2.2004580      4.7751944
O       13.7292595     -2.2308008      3.3482469
C       13.2416790     -3.0580025      2.2866912
X       14.0399539     -2.8010201      1.0239871
X       15.5090100     -1.1131217      0.3254391
X       17.1161841      0.2316095      1.9063860
X       18.9426681      1.2651226      0.6425450
   142
  Step:         1275 Total energy:    2273.8178596833177      Temperature:   0.61599999999999955     
O       -6.6790006     -3.0050079     -8.8703790
C       -7.0456434     -3.6141670    -10.1122315
X       -6.5159723     -2.7941615    -11.2786166
X       -5.8153053     -0.5745054    -11.5629876
X       -4.6321354      0.8106516     -9.6762067
X       -3.2999277      2.6516415    -10.5683217
P       -3.0294492     -4.3674750    -11.4564432
O       -1.9620537     -3.2944932    -11.9855577
C       -1.5227242     -3.2744327    -13.3432395
X       -0.4571785     -2.2248034    -13.6375260
X        0.1326037     -0.1257954    -12.7779147
X       -0.3330954      0.7923511    -10.3673319
X        1.3022641      2.5429745     -9.8672479
P        2.7226428     -4.2271612    -13.0112927
O        3.2928309     -3.9526884    -11.5535260
C        4.0846913     -2.8209314    -11.1998645
X        4.5303376     -2.9152899     -9.7457481
X        3.9457999     -4.2813287     -7.9351933
X        3.1750673     -6.7593495     -8.2844408
X        3.6219753     -8.1035375     -6.3026710
P        8.0007024     -4.3754266    -10.3349923
O        8.9336853     -4.1501201     -9.0551157
C       10.2078223     -4.8033516     -8.9495573
X       10.9777385     -4.2893994     -7.7282702
X       10.9192754     -2.3226670     -6.4455100
X        8.7057891     -0.9986316     -5.9844119
X        9.0258987      0.4660723     -4.0454880
P        9.9089611     -6.8699778     -5.1009679
O        9.9143596     -6.2391630     -3.6437579
C       11.1648611     -5.9251579     -3.0141363
X       10.9569969     -5.1587741     -1.7020572
X        9.1321474     -4.0459673     -0.7175429
X        6.1471355     -4.2394889     -1.3406881
P       11.1308805     -8.0902913      0.7123998
O       10.3450748     -7.7581983      2.0639652
C        9.2231057     -8.5511608      2.4425886
X        9.4950399     -9.6118497      3.4881219
X       11.3516202    -10.6772200      4.4552642
X       13.7604181     -9.6667494      4.6761507
X       14.8939609    -10.4001964      6.7097718
P        8.5263264     -7.5996651      6.5834308
O        8.9503507     -8.3539824      7.9314512
C        8.3644605     -9.5736022      8.3687590
X        7.9715189     -9.4277530      9.8311098
X        8.3910487     -7.8905391     11.5551950
X        8.7309514     -5.3101089     11.1738900
X        7.5109084     -3.9438230     12.8009463
P        4.3812151     -8.4838018      9.3510855
O        3.8511527     -7.5952428     10.5799314
C        3.0385465     -8.1789550     11.6153797
X        2.1017055     -7.1918378     12.2990878
X        2.0190703     -4.8649050     12.5801749
X        3.2678093     -2.7560779     10.8296951
P       -0.8012451     -7.5257741      9.9116795
O       -1.7291870     -6.2521331      9.8862571
C       -2.8127457     -6.1316307     10.7904792
X       -3.4379498     -4.7685047     10.6109941
X       -2.8008645     -2.7664079      9.5862709
X       -0.7935579     -2.2030267      7.3537712
P       -6.1147403     -5.6260338      8.0654116
O       -6.8254894     -4.2907490      7.4861132
C       -7.8001500     -3.5152088      8.2051646
X       -8.4038777     -2.4015464      7.3781270
X       -7.6536475     -1.0477696      5.6183768
X       -5.7327047     -1.3498131      3.3213989
P      -11.4454185     -4.3510956      6.0735168
O      -11.7401446     -4.1273921      4.5258812
C      -11.5515864     -2.8706771      3.8531807
X      -11.8527765     -2.9737492      2.3500544
X      -11.4412102     -4.5943560      0.6901143
X      -10.8047897     -7.5639519      0.7862046
P      -15.6786185     -2.2010312      2.4226832
O      -16.1045868     -1.1262273      1.3316231
C      -16.6744625     -1.4945313      0.0598428
X      -16.8629990     -0.2448050     -0.8060784
X      -17.5107871      1.9829771     -0.4278331
X      -17.4490384      3.7904022      1.9615847
P      -13.4644110     -0.2759445     -2.5969165
O      -13.6110516     -0.4650335     -4.1920607
C      -12.7772693      0.2652782     -5.1050137
X      -12.9601032     -0.2270085     -6.5521439
X      -13.8344846     -2.1936476     -7.5160563
X      -15.4985952     -4.4740337     -6.4116956
P      -15.1146978      2.6761480     -7.8409035
O      -14.4050287      3.3695535     -9.0744293
C      -13.6844972      2.6547864    -10.1010872
X      -13.0587132      3.7066879    -11.0503760
X      -13.4956791      5.9555407    -11.5389887
X      -14.9986404      8.2566511    -10.2486207
P       -9.8088265      4.0908375     -9.1413059
O       -8.9037600      5.2979090     -9.6648435
C       -7.6002327      5.1606420    -10.2456664
X       -6.9663917      6.5057021    -10.5504882
X       -7.6904787      8.5317299    -11.4208013
X      -10.1128512      9.5592484    -11.3322257
X      -10.1476074     11.6718414    -11.7693991
P       -5.5515189      7.1838605     -7.1079305
O       -5.2813107      8.7337434     -6.8655388
C       -5.8562540      9.5666596     -5.8351404
X       -5.7056613      8.9847407     -4.4352926
X       -4.9878965      6.9126973     -3.5864904
X       -3.1654277      5.2684744     -4.5685581
X       -2.1166645      3.8955212     -3.2128505
P       -2.4836818     10.7975154     -3.1751171
O       -2.6913988     11.3575140     -1.6888611
C       -1.6122802     11.8852687     -0.8743973
X       -1.8250307     12.2275681      0.6364915
X       -3.3843412     13.4415712      1.9296846
X       -6.2511953     14.0811410      1.2334484
P       -0.3759420      9.0550220      1.9713609
O        0.1070931      9.0586893      3.5456456
C       -0.8011257      9.3258041      4.6862488
X       -0.8041643      8.2501296      5.7849621
X       -0.9176685      5.8407223      5.9366785
X       -0.6398921      3.7524351      4.2724649
X        0.4142144      1.9133136      4.9910063
P        2.5825829      8.9794482      7.4568450
O        2.6371843      8.3644341      8.9198348
C        2.7843740      9.2139533     10.0390572
X        3.0976413      8.4031559     11.2774005
X        2.5344879      6.3046368     12.1390014
X        1.9719074      4.6533648     10.2004296
X        2.4021550      2.3495542     10.9610222
P        6.9585726      8.0229295     10.9594006
O        7.4067327      6.5424122     11.3135447
C        8.3229655      5.7793301     10.5243641
X        7.8016162      5.5018029      9.1166670
X        8.1455349      6.4125556      6.9773135
X       10.4393023      7.9797584      5.8303748
P        9.4713620      2.1507955      8.6069330
O        9.6567144      1.7552383      7.0839754
C       10.9065164      1.2278196      6.6380682
X       10.8413473      1.0184140      5.1396884
X       11.6995313      2.1056113      3.2515284
X       14.0924873      3.8953112      2.9721802
P       12.9926215     -2.1655613      4.7986347
O       13.7074837     -2.2197467      3.3718085
C       13.2639502     -3.0731901      2.3146691
X       14.0644948     -2.8122378      1.0503126
X       15.5503397     -1.1493265      0.3221575
X       17.1112554      0.2319660      1.9114426
X       18.9472803      1.2728065      0.6625357
   142
  Step:         1300 Total energy:    2272.3650607494324      Temperature:   0.61599999999999999     
O       -6.7291763     -2.9920959     -8.8561869
C       -7.0471736     -3.5814115    -10.1198066
X       -6.4882644     -2.7613652    -11.2738246
X       -5.7459706     -0.5602437    -11.5770134
X       -4.6553270      0.8367752     -9.6478743
X       -3.3009247      2.6576657    -10.5634847
P       -3.0211419     -4.3235954    -11.4342920
O       -1.9725884     -3.2618814    -12.0126272
C       -1.4934013     -3.3525908    -13.3486478
X       -0.4654658     -2.2663637    -13.6516920
X        0.0878722     -0.1519078    -12.7858854
X       -0.3371675      0.8048477    -10.3897997
X        1.3043806      2.5495817     -9.8698179
P        2.7248886     -4.2338017    -12.9845805
O        3.2582258     -3.9064108    -11.5055181
C        4.0840787     -2.7800274    -11.1789815
X        4.5323140     -2.8768780     -9.7276221
X        4.0059313     -4.2898646     -7.9278938
X        3.1565514     -6.7441455     -8.2868370
X        3.6347027     -8.1075619     -6.3023100
P        7.9776822     -4.3577389    -10.3186048
O        8.9676512     -4.1268934     -9.0860876
C       10.1898215     -4.7939826     -8.8929266
X       10.9543497     -4.2735171     -7.7153451
X       10.8914750     -2.3434146     -6.4016631
X        8.6884899     -0.9811865     -5.9985682
X        9.0205496      0.4674659     -4.0449495
P        9.9254036     -6.9161484     -5.1125057
O        9.9642061     -6.2639360     -3.6427216
C       11.1784111     -5.9421248     -2.9735374
X       10.9393840     -5.1862467     -1.6971829
X        9.1325225     -4.0709859     -0.7396208
X        6.1392217     -4.2287980     -1.3561025
P       11.1535190     -8.1010678      0.7567365
O       10.3160989     -7.7660691      2.0685813
C        9.1861676     -8.5417650      2.4741473
X        9.4814946     -9.6138196      3.5195083
X       11.3507292    -10.7224493      4.4161093
X       13.7363339     -9.6621061      4.6798277
X       14.8878417    -10.4064779      6.7107243
P        8.4809405     -7.6327284      6.6050384
O        8.9735884     -8.3598974      7.9246652
C        8.3548406     -9.5513604      8.3545223
X        8.0173352     -9.4564331      9.8346640
X        8.3742605     -7.8667859     11.5237828
X        8.7165291     -5.3053820     11.1521915
X        7.5140389     -3.9530602     12.8068091
P        4.3812131     -8.4605527      9.3499231
O        3.8085044     -7.6163138     10.5509360
C        3.0449450     -8.2412490     11.5853715
X        2.1888772     -7.2104937     12.3220897
X        2.0188983     -4.8840692     12.5309625
X        3.2390727     -2.7641346     10.8197883
P       -0.7543091     -7.5426761      9.8690176
O       -1.7615532     -6.2973009      9.8835604
C       -2.8570326     -6.1248251     10.7869872
X       -3.4596892     -4.7363455     10.6178706
X       -2.7533742     -2.7377741      9.6095878
X       -0.7966942     -2.1954279      7.3085172
P       -6.1263654     -5.6490701      8.0354060
O       -6.8385717     -4.3495344      7.4761378
C       -7.7825945     -3.5541815      8.2031995
X       -8.3705269     -2.4148079      7.3589093
X       -7.7005824     -1.0759846      5.5245332
X       -5.6984458     -1.3666697      3.3042589
P      -11.4316124     -4.3465901      6.0733654
O      -11.7334970     -4.1484756      4.5190383
C      -11.5746346     -2.8804443      3.8612367
X      -11.8273897     -3.0100396      2.3698537
X      -11.3845021     -4.6274191      0.7516221
X      -10.8233998     -7.5641776      0.7935439
P      -15.6742345     -2.1933003      2.4649247
O      -16.0821166     -1.1542141      1.3040113
C      -16.6489046     -1.4567619      0.0108274
X      -16.8445447     -0.2268860     -0.8404778
X      -17.4746218      1.9785240     -0.4518606
X      -17.4783598      3.7891570      1.9413218
P      -13.4378446     -0.3331881     -2.5954619
O      -13.5890611     -0.4538452     -4.1633892
C      -12.7574602      0.2277232     -5.1053491
X      -13.0134100     -0.2542484     -6.5200844
X      -13.8584316     -2.2097392     -7.4777335
X      -15.5106097     -4.4668811     -6.4133822
P      -15.1001032      2.6531484     -7.8284104
O      -14.4263973      3.3941541     -9.0696532
C      -13.7081218      2.6972138    -10.0887407
X      -13.1316574      3.6922520    -11.0383295
X      -13.5481175      5.9288319    -11.6440710
X      -15.0191181      8.2565860    -10.2369547
P       -9.7619744      4.0240045     -9.1643631
O       -8.9260641      5.2618232     -9.7190353
C       -7.5716030      5.1243784    -10.2334861
X       -6.9476478      6.4854401    -10.5761906
X       -7.6251813      8.5788865    -11.3715162
X      -10.0924834      9.5206851    -11.3691647
X      -10.1626267     11.6776406    -11.7293987
P       -5.4821898      7.1628567     -7.1610303
O       -5.3092317      8.7488315     -6.8985871
C       -5.7811126      9.5753443     -5.7979983
X       -5.6262149      8.9874990     -4.3992168
X       -4.9207781      6.9405651     -3.5056716
X       -3.1747221      5.2597448     -4.5615039
X       -2.1408395      3.9171829     -3.2045418
P       -2.4848569     10.8133726     -3.2352211
O       -2.7339548     11.2949827     -1.7019421
C       -1.6907988     11.9550710     -0.9514040
X       -1.8845351     12.2917806      0.5227742
X       -3.3437693     13.5017546      1.8752589
X       -6.2191068     14.0968607      1.2033422
P       -0.5022066      9.0551965      2.1011137
O       -0.0589607      9.2213529      3.5668832
C       -0.9397979      9.1942473      4.7174983
X       -0.7519859      8.1140485      5.6998912
X       -0.8944687      5.7903432      5.8311915
X       -0.6136462      3.6964470      4.2466638
X        0.4276849      1.9530729      5.0247746
P        2.5247193      8.9858533      7.4300725
O        2.5712041      8.3948186      8.9313740
C        2.9043259      9.2192729     10.0660022
X        3.1953177      8.4140858     11.3212782
X        2.5091768      6.3194176     12.0630924
X        1.9799740      4.5999162     10.1447263
X        2.4086993      2.3528666     10.9802001
P        6.9643856      7.9908917     10.9373029
O        7.4539305      6.5171155     11.3202580
C        8.3985951      5.7971645     10.5242218
X        7.8224836      5.5398340      9.1450340
X        8.1794037      6.4532495      7.0224309
X       10.4656791      7.9766169      5.8107971
P        9.5063708      2.1648243      8.6025650
O        9.6615738      1.7302501      7.0790284
C       10.9111100      1.2028124      6.6149407
X       10.8576517      1.0155630      5.1130535
X       11.6845212      2.1313039      3.2276101
X       14.0993035      3.8875270      2.9627406
P       12.9535009     -2.1152838      4.8278615
O       13.6704303     -2.2043033      3.4012801
C       13.2756058     -3.0742231      2.3371146
X       14.0997069     -2.8302052      1.0763775
X       15.5786911     -1.1758702      0.3135317
X       17.1078683      0.2307963      1.9118708
X       18.9481937      1.2787587      0.6810355
   142
  Step:         1325 Total energy:    2285.9272320672171      Temperature:   0.61600000000000044     
O       -6.7824836     -2.9610694     -8.8488365
C       -7.0436682     -3.5558515    -10.1233613
X       -6.4689042     -2.7340239    -11.2683156
X       -5.7076282     -0.5407894    -11.5727151
X       -4.6804795      0.8662286     -9.6153373
X       -3.2991166      2.6708587    -10.5533307
P       -3.0111491     -4.2662090    -11.4043958
O       -1.9609059     -3.2681933    -12.0438425
C       -1.4799495     -3.3991717    -13.3831696
X       -0.4647513     -2.3097773    -13.6618111
X        0.0211404     -0.1793441    -12.8130467
X       -0.3441245      0.8249724    -10.4114715
X        1.3006443      2.5574077     -9.8661099
P        2.7214142     -4.2300688    -12.9250591
O        3.2708606     -3.8800392    -11.4843205
C        4.0525998     -2.7337653    -11.1431507
X        4.5262201     -2.8474159     -9.7094595
X        4.0078003     -4.2697346     -7.9206717
X        3.1488218     -6.7274361     -8.2793861
X        3.6392936     -8.1064588     -6.3034362
P        7.9717772     -4.3441511    -10.3145747
O        8.9514559     -4.0764254     -9.0740309
C       10.1745635     -4.8288826     -8.9054787
X       10.9511575     -4.3046650     -7.6805442
X       10.8603458     -2.3414087     -6.3753410
X        8.6777716     -0.9531625     -5.9966860
X        9.0041560      0.4724459     -4.0452953
P        9.9399904     -6.9331286     -5.1141371
O       10.0142557     -6.3137890     -3.6578670
C       11.2359846     -5.9570933     -2.9960734
X       10.9433757     -5.2181000     -1.6780540
X        9.1261621     -4.0629911     -0.7293191
X        6.1259524     -4.2142067     -1.3696141
P       11.1762504     -8.1084045      0.8045268
O       10.3157406     -7.8172107      2.1204932
C        9.1295704     -8.5385835      2.5012674
X        9.4470207     -9.6251045      3.5411997
X       11.3510212    -10.7184675      4.3612276
X       13.7141891     -9.6477281      4.6808527
X       14.8758047    -10.4128584      6.7141847
P        8.4367704     -7.6409214      6.6084623
O        8.9819011     -8.3551808      7.9278499
C        8.4273031     -9.5914568      8.3981325
X        8.0189682     -9.4720856      9.8571690
X        8.3781368     -7.8697382     11.5397879
X        8.7011067     -5.2898354     11.1276155
X        7.5170150     -3.9639959     12.8162589
P        4.3880931     -8.4512671      9.3217834
O        3.7774403     -7.6071024     10.5491118
C        3.1269375     -8.2338926     11.6590129
X        2.1518135     -7.2871459     12.3228451
X        2.0532699     -4.9573513     12.5169255
X        3.2089174     -2.7597206     10.8046032
P       -0.7405063     -7.5675668      9.8288582
O       -1.7338549     -6.3011721      9.9153489
C       -2.8818283     -6.1186282     10.7729156
X       -3.4573475     -4.7036415     10.6260184
X       -2.7139118     -2.7263492      9.6016079
X       -0.8062576     -2.1823617      7.2663480
P       -6.1420405     -5.6666259      8.0225489
O       -6.8484176     -4.3584871      7.4190542
C       -7.7381211     -3.5361021      8.1850006
X       -8.3558231     -2.4595919      7.3172382
X       -7.6794796     -1.1483853      5.4963134
X       -5.6676481     -1.3814280      3.2939182
P      -11.4305712     -4.3504106      6.0797390
O      -11.6631736     -4.1380380      4.5235018
C      -11.6293987     -2.8696990      3.8951278
X      -11.8986182     -3.0028421      2.4153968
X      -11.3551443     -4.5899511      0.7417157
X      -10.8406458     -7.5768033      0.8025258
P      -15.6420047     -2.1764942      2.4604985
O      -16.0640913     -1.1191412      1.3254209
C      -16.6083572     -1.4900821      0.0509487
X      -16.8170192     -0.2664056     -0.8579420
X      -17.4435218      2.0093017     -0.5451599
X      -17.5081472      3.7942237      1.9288561
P      -13.4106399     -0.3803656     -2.5734344
O      -13.6035441     -0.4392520     -4.1713490
C      -12.7079197      0.2053060     -5.0868632
X      -13.0269998     -0.2609892     -6.4798202
X      -13.8380396     -2.2259891     -7.5029087
X      -15.5295803     -4.4633534     -6.4108991
P      -15.1150447      2.6429510     -7.7949278
O      -14.4477578      3.4104969     -9.0232224
C      -13.7996724      2.7501341    -10.1219018
X      -13.1194956      3.7298696    -11.0336256
X      -13.6515149      5.9226688    -11.6546435
X      -15.0339498      8.2485478    -10.2286112
P       -9.7259615      3.9774915     -9.2128214
O       -8.9336956      5.2441607     -9.7699718
C       -7.6040854      5.1107717    -10.2804030
X       -6.9240755      6.4274266    -10.5804391
X       -7.6140748      8.5252602    -11.3611463
X      -10.0514787      9.5081743    -11.3967620
X      -10.1940864     11.6760351    -11.6837521
P       -5.4278703      7.2068985     -7.1496704
O       -5.2125211      8.7511535     -6.8868874
C       -5.7576557      9.5200240     -5.8234620
X       -5.5615790      8.9140845     -4.4305295
X       -4.8580631      6.9307182     -3.4095636
X       -3.1857433      5.2794927     -4.5602829
X       -2.1625533      3.9292154     -3.1900884
P       -2.5414142     10.8652879     -3.2268540
O       -2.6792367     11.2233944     -1.6902382
C       -1.6741635     12.0731423     -1.1211690
X       -1.8904166     12.3157692      0.3733924
X       -3.3612066     13.4989417      1.7535167
X       -6.2162375     14.1374139      1.1685172
P       -0.6462542      9.0337094      2.1944460
O       -0.0254778      9.2153795      3.7092652
C       -1.0539592      9.1903464      4.7362409
X       -0.7546931      7.9743777      5.6549786
X       -0.8819733      5.6461670      5.8254732
X       -0.5823200      3.6564422      4.1972787
X        0.4390760      1.9916689      5.0694312
P        2.4668808      8.9991180      7.4440057
O        2.5557018      8.4879259      8.9430809
C        3.0767201      9.2841403     10.0410631
X        3.2339611      8.4346694     11.3233763
X        2.4819163      6.3120905     11.9621135
X        1.9842555      4.5567587     10.1021067
X        2.4234865      2.3365180     11.0016750
P        6.9749746      7.9627261     10.9082710
O        7.4838846      6.5278118     11.3471261
C        8.4259217      5.7983302     10.5578521
X        7.8758618      5.5699887      9.1591292
X        8.1866491      6.4904035      7.0252335
X       10.4934757      7.9770464      5.7935656
P        9.5375689      2.1579520      8.6273124
O        9.7121261      1.7789482      7.0898825
C       10.9008013      1.1802983      6.5684757
X       10.7960495      1.0160509      5.0632225
X       11.6778943      2.1424333      3.2069207
X       14.1086680      3.8868893      2.9546685
P       12.9287814     -2.0839931      4.8495776
O       13.6558519     -2.1625474      3.4263728
C       13.2718003     -3.0520986      2.3683745
X       14.1309024     -2.8582197      1.1213887
X       15.5836784     -1.1991139      0.3294149
X       17.1036867      0.2318823      1.9161972
X       18.9481993      1.2888048      0.7024595
   142
  Step:         1350 Total energy:    2284.2101887246477      Temperature:   0.61599999999999988     
O       -6.8297103     -2.9085551     -8.8573285
C       -7.0459695     -3.5387508    -10.1268378
X       -6.4693231     -2.7132042    -11.2693352
X       -5.7454442     -0.5021053    -11.5334685
X       -4.6941267      0.9059107     -9.5920003
X       -3.3035477      2.6803014    -10.5313521
P       -3.0008053     -4.2325006    -11.3629514
O       -1.9364922     -3.2711077    -12.0629339
C       -1.4720164     -3.4193101    -13.4192540
X       -0.4685567     -2.3199574    -13.6949968
X       -0.0092723     -0.1910244    -12.8319806
X       -0.3628810      0.8450251    -10.4354831
X        1.2921397      2.5637216     -9.8638289
P        2.7149224     -4.2305138    -12.8712698
O        3.3077030     -3.8749271    -11.4278986
C        4.0368089     -2.6794664    -11.1155008
X        4.5072456     -2.8188896     -9.6781648
X        3.9508519     -4.2434096     -7.9009929
X        3.1522446     -6.7120408     -8.2606390
X        3.6334674     -8.0980545     -6.3126072
P        7.9811092     -4.3225522    -10.3096303
O        8.9346211     -4.0826152     -9.0697691
C       10.1533885     -4.8289232     -8.8808722
X       10.9179776     -4.3085376     -7.6850145
X       10.8234063     -2.3762059     -6.3963119
X        8.6744880     -0.9343305     -5.9991724
X        8.9792262      0.4922194     -4.0324335
P        9.9553492     -6.9446858     -5.1192563
O       10.0367490     -6.3614157     -3.6236382
C       11.2583657     -5.9546570     -2.9688659
X       10.9535809     -5.2195592     -1.6630354
X        9.0978144     -4.1223578     -0.7711290
X        6.1160204     -4.1964743     -1.3818628
P       11.1844961     -8.1297142      0.8608400
O       10.3239710     -7.8420443      2.1742632
C        9.1374856     -8.5571860      2.5041722
X        9.3936593     -9.6509856      3.5142626
X       11.3109590    -10.7015000      4.3529766
X       13.7058487     -9.6267504      4.6881226
X       14.8474887    -10.4166988      6.7039853
P        8.4000513     -7.6491434      6.6208309
O        8.9478082     -8.3595124      7.9405130
C        8.4952426     -9.6265028      8.4635201
X        8.0372216     -9.4332921      9.8906860
X        8.3784331     -7.8428635     11.5629354
X        8.6803640     -5.2817577     11.1048697
X        7.5199346     -3.9758021     12.8248707
P        4.3851864     -8.4373933      9.3004998
O        3.7946106     -7.6508274     10.5571730
C        3.1378853     -8.2819231     11.6533798
X        2.1713176     -7.3081482     12.3213854
X        2.0331223     -4.9688774     12.4804696
X        3.1729670     -2.7570180     10.7917668
P       -0.7791534     -7.5779681      9.8107650
O       -1.6766456     -6.2727794      9.9343290
C       -2.8269612     -6.1182844     10.7697041
X       -3.4261093     -4.7320746     10.5772254
X       -2.7158905     -2.7366770      9.5696047
X       -0.8221039     -2.1663166      7.2258983
P       -6.1512873     -5.6604615      8.0228937
O       -6.8209674     -4.3701990      7.3930718
C       -7.7119687     -3.5636010      8.1529960
X       -8.3427420     -2.4840513      7.3071492
X       -7.6625559     -1.1601489      5.5018079
X       -5.6348172     -1.3971358      3.2802508
P      -11.4302473     -4.3637449      6.1011046
O      -11.5991575     -4.1471667      4.5211392
C      -11.7322935     -2.8651218      3.9041329
X      -11.9177322     -2.9869001      2.4010286
X      -11.4026376     -4.6399208      0.8036948
X      -10.8610718     -7.5790107      0.8089619
P      -15.6274046     -2.1511439      2.4356523
O      -16.0420409     -1.0637677      1.3477074
C      -16.6089378     -1.4507935      0.1030605
X      -16.7950478     -0.2398185     -0.7994483
X      -17.3802630      1.9773606     -0.4377539
X      -17.5381324      3.7855435      1.8953067
P      -13.3979568     -0.4181221     -2.5660221
O      -13.6073665     -0.4303528     -4.1290011
C      -12.7173284      0.1810274     -5.0722849
X      -12.9568797     -0.2788985     -6.5093621
X      -13.8450225     -2.2346051     -7.4808815
X      -15.5500333     -4.4589099     -6.4096554
P      -15.1547140      2.6530864     -7.7547349
O      -14.4353644      3.4019286     -8.9738680
C      -13.8195183      2.7162680    -10.0701842
X      -13.1869202      3.7588231    -11.0316346
X      -13.6229534      5.9931406    -11.6791940
X      -15.0536691      8.2416411    -10.2205249
P       -9.7325644      3.9540366     -9.2891943
O       -8.8933567      5.2175953     -9.7932962
C       -7.5909383      5.0533251    -10.3017934
X       -6.9250783      6.3853444    -10.5756989
X       -7.5940211      8.4875860    -11.4345319
X      -10.0097234      9.5175818    -11.4130990
X      -10.2311771     11.6606430    -11.6361768
P       -5.3918662      7.2242443     -7.1115289
O       -5.0165249      8.7667232     -6.8969231
C       -5.7499068      9.4319738     -5.8622080
X       -5.5973435      8.8992076     -4.4179485
X       -4.8914669      6.9141272     -3.3885241
X       -3.1780515      5.2998842     -4.5570901
X       -2.1817186      3.9317857     -3.1833876
P       -2.6172495     10.9242538     -3.2401328
O       -2.5998759     11.1822243     -1.6791779
C       -1.6027208     12.0484435     -1.1724369
X       -1.7685466     12.3425735      0.3073110
X       -3.3687234     13.4595648      1.6370926
X       -6.2426413     14.1942102      1.1277451
P       -0.7548259      9.0241487      2.2526660
O       -0.1405218      9.1510812      3.6606469
C       -0.9583160      9.0715786      4.7436531
X       -0.8282827      7.9666020      5.8212000
X       -0.9097187      5.6122973      5.8712923
X       -0.5709725      3.6409073      4.1070379
X        0.4764718      1.9752860      5.1253427
P        2.4307124      9.0453847      7.4764753
O        2.5628248      8.5588393      8.9979634
C        3.1263015      9.3562162     10.0321868
X        3.2682929      8.4747229     11.2326422
X        2.4654268      6.3692413     11.8726637
X        1.9827744      4.5214285     10.0643441
X        2.4434875      2.2983735     11.0229204
P        7.0002988      7.9532293     10.8781118
O        7.4954836      6.5267497     11.3768532
C        8.4491617      5.8098199     10.5790361
X        7.9237026      5.5536975      9.1664086
X        8.2221955      6.5132851      7.0432569
X       10.5186518      7.9792904      5.7777030
P        9.5675956      2.1451566      8.6604020
O        9.7442368      1.8770520      7.0971706
C       10.8515684      1.1812108      6.5339476
X       10.7235748      1.0404680      5.0244753
X       11.6681115      2.1481037      3.1819105
X       14.1158049      3.8881026      2.9465741
P       12.9184350     -2.0709075      4.8466414
O       13.6658731     -2.1278553      3.4429854
C       13.2634408     -3.0338982      2.4142954
X       14.1401050     -2.8726824      1.1844235
X       15.5941856     -1.2337745      0.3543839
X       17.0950879      0.2345747      1.9256269
X       18.9467859      1.3012652      0.7218679
   142
  Step:         1375 Total energy:    2276.3336177433853      Temperature:   0.61599999999999988     
O       -6.8694632     -2.8512686     -8.8901606
C       -7.0472258     -3.5319806    -10.1325450
X       -6.4888892     -2.6870346    -11.2626870
X       -5.8267752     -0.4502382    -11.4961993
X       -4.7079457      0.9376654     -9.5726953
X       -3.3007468      2.7000777    -10.5102591
P       -2.9740791     -4.2210343    -11.3298694
O       -1.9349453     -3.2706904    -12.0668869
C       -1.4820016     -3.4061533    -13.4175017
X       -0.4666236     -2.3019829    -13.7191439
X        0.0175980     -0.1711307    -12.8450147
X       -0.3904568      0.8617341    -10.4645796
X        1.2787929      2.5636487     -9.8703013
P        2.7211618     -4.2414132    -12.8235564
O        3.3092138     -3.8552428    -11.4046241
C        4.0438212     -2.6784026    -11.0853562
X        4.4918821     -2.7838705     -9.6336923
X        3.8919904     -4.1964248     -7.8585826
X        3.1574338     -6.6893356     -8.2599049
X        3.6255876     -8.0964129     -6.3110787
P        7.9720984     -4.2892045    -10.3201404
O        8.9230553     -4.1231533     -9.0476423
C       10.1333740     -4.8528984     -8.8910869
X       10.8893671     -4.3113295     -7.7102481
X       10.8464698     -2.3697015     -6.3994640
X        8.6698821     -0.9153773     -6.0000392
X        8.9496221      0.5165655     -4.0211448
P        9.9725686     -6.9558814     -5.0946116
O       10.0609315     -6.3860771     -3.6074387
C       11.2602240     -5.9911640     -2.9517534
X       10.9784528     -5.2566710     -1.6618064
X        9.1171113     -4.1360795     -0.7593114
X        6.0985607     -4.1792904     -1.3987548
P       11.1925490     -8.1521539      0.8988748
O       10.3230581     -7.8384607      2.2079512
C        9.1189059     -8.5666258      2.4676777
X        9.3942362     -9.6665473      3.4914005
X       11.3113340    -10.6693153      4.4093178
X       13.6838630     -9.6030699      4.6813827
X       14.8148111    -10.4241712      6.6921391
P        8.3672396     -7.6824984      6.6318815
O        8.9461241     -8.3397322      7.9511430
C        8.4707127     -9.5886064      8.4717351
X        8.0641884     -9.4308964      9.9352676
X        8.3735989     -7.8204540     11.6141612
X        8.6582450     -5.2684828     11.0827758
X        7.5246005     -3.9850011     12.8281641
P        4.3998258     -8.4379375      9.2834867
O        3.8216616     -7.6891345     10.5604778
C        3.0672783     -8.3384841     11.5803560
X        2.1939607     -7.3042212     12.2853204
X        2.0043892     -4.9699382     12.4387329
X        3.1342454     -2.7565413     10.7767961
P       -0.7981770     -7.5890459      9.8335491
O       -1.6312886     -6.2265639      9.8870930
C       -2.7728737     -6.1206415     10.7359418
X       -3.3924539     -4.7595693     10.5392628
X       -2.7464635     -2.7649849      9.4961209
X       -0.8403020     -2.1489682      7.1846215
P       -6.1335684     -5.6711262      8.0300361
O       -6.7718456     -4.3572372      7.3971179
C       -7.7386134     -3.6129454      8.1408786
X       -8.3077497     -2.4588573      7.3039461
X       -7.6244045     -1.1486047      5.4791442
X       -5.6061144     -1.4138986      3.2672862
P      -11.4182127     -4.3689872      6.0933827
O      -11.5906035     -4.1698838      4.5230181
C      -11.7526229     -2.8716358      3.9309136
X      -11.9260012     -2.9681268      2.4200688
X      -11.4770376     -4.6289805      0.8090358
X      -10.8829956     -7.5878712      0.8103298
P      -15.6374389     -2.1337823      2.4230183
O      -16.0042075     -1.0194614      1.3530546
C      -16.6229194     -1.4580767      0.1662130
X      -16.7395837     -0.2863686     -0.7618152
X      -17.3974599      1.9752377     -0.5583280
X      -17.5675761      3.7931148      1.8807351
P      -13.3973998     -0.4438992     -2.5562536
O      -13.5924341     -0.4539849     -4.1726200
C      -12.6847664      0.1859092     -5.0817463
X      -12.9326830     -0.2899108     -6.5076119
X      -13.8290600     -2.2353593     -7.4631857
X      -15.5710750     -4.4551727     -6.4119269
P      -15.1701917      2.6451939     -7.7189417
O      -14.4388788      3.4230580     -8.9247405
C      -13.8464927      2.7884258    -10.0402974
X      -13.2177954      3.7430441    -11.0247731
X      -13.5515414      5.9680802    -11.6502485
X      -15.0758758      8.2387287    -10.2150665
P       -9.7774786      3.9358876     -9.3766430
O       -8.8789031      5.1787427     -9.8117649
C       -7.5231473      5.0431837    -10.2614178
X       -6.8858297      6.4012067    -10.5984046
X       -7.5647225      8.4636243    -11.5120079
X       -9.9750813      9.4999341    -11.4176965
X      -10.2616976     11.6664564    -11.5974773
P       -5.3479311      7.1993475     -7.0985090
O       -4.9253860      8.6960177     -6.7918545
C       -5.6735111      9.4860669     -5.8718159
X       -5.6817280      8.8950420     -4.4711119
X       -4.9790750      6.8969568     -3.4647250
X       -3.1602822      5.3254372     -4.5430539
X       -2.1955584      3.9243644     -3.1918386
P       -2.6908508     10.9896332     -3.2923916
O       -2.5395915     11.1697952     -1.6756858
C       -1.4180485     11.8671699     -1.0689887
X       -1.6538000     12.3702591      0.3512004
X       -3.4069000     13.4467731      1.4773766
X       -6.2692853     14.2504644      1.0845886
P       -0.8780899      8.9990109      2.1520805
O       -0.2227098      9.0439420      3.7172732
C       -0.9820402      9.1219663      4.9521740
X       -0.8705725      7.9084447      5.9144719
X       -0.9602432      5.6010303      5.7678710
X       -0.5294037      3.6236991      4.0979959
X        0.4923255      1.9800855      5.1232364
P        2.4112203      9.1153203      7.5026280
O        2.5639326      8.5945467      8.9748748
C        3.0721119      9.4212179     10.0105269
X        3.3030905      8.5365374     11.2035353
X        2.4711730      6.4121897     11.7445765
X        1.9853887      4.4709479     10.0466968
X        2.4606500      2.2750862     11.0274421
P        7.0422062      7.9605954     10.8494642
O        7.5125559      6.5193315     11.3359272
C        8.4768512      5.7774913     10.6041861
X        7.9367812      5.5544292      9.2096762
X        8.2967395      6.4788390      7.0786780
X       10.5416226      7.9830373      5.7609125
P        9.5944805      2.1490293      8.6734556
O        9.7308364      1.9537184      7.0926125
C       10.7982396      1.2047145      6.5148451
X       10.7172850      1.0621818      5.0004877
X       11.6602945      2.1773770      3.1697132
X       14.1176864      3.8856523      2.9358289
P       12.9063969     -2.0500637      4.8370840
O       13.6859071     -2.1160701      3.4576888
C       13.2674017     -3.0270838      2.4477290
X       14.1351884     -2.8849185      1.2154927
X       15.6224452     -1.2754950      0.3817407
X       17.0883912      0.2415804      1.9358742
X       18.9404004      1.3112039      0.7369095
   142
  Step:         1400 Total energy:    2294.5832109949665      Temperature:   0.61599999999999999     
O       -6.9085049     -2.8058150     -8.9049762
C       -7.0510622     -3.5147053    -10.1365767
X       -6.4947847     -2.6649750    -11.2617855
X       -5.8893509     -0.4098298    -11.4635667
X       -4.7286873      0.9612940     -9.5520125
X       -3.2909333      2.7276203    -10.4869895
P       -2.9566470     -4.2207786    -11.3087342
O       -1.9233252     -3.2348882    -12.0477968
C       -1.5012799     -3.3426811    -13.3993698
X       -0.4407102     -2.2887001    -13.6884013
X        0.0579773     -0.1403252    -12.8674371
X       -0.4191329      0.8749939    -10.4954535
X        1.2585857      2.5544315     -9.8809876
P        2.7239423     -4.2566348    -12.7990799
O        3.2828305     -3.8346253    -11.3534235
C        4.0540808     -2.6755087    -11.0427006
X        4.4854821     -2.7782120     -9.5933524
X        3.8605196     -4.1687275     -7.8175842
X        3.1669518     -6.6605725     -8.2604769
X        3.6144323     -8.0943123     -6.3064321
P        7.9407992     -4.2448125    -10.3275109
O        8.8679196     -4.1771458     -9.0304702
C       10.1243470     -4.8584067     -8.9048276
X       10.9036609     -4.3205712     -7.6816208
X       10.7977583     -2.3288465     -6.4358548
X        8.6806868     -0.9002960     -5.9880359
X        8.9154098      0.5349908     -4.0192816
P        9.9910112     -6.9769259     -5.0663889
O       10.0664969     -6.3722852     -3.5903647
C       11.2901211     -6.0532651     -2.9157904
X       10.9520315     -5.3038491     -1.6246987
X        9.0766751     -4.1560277     -0.7898352
X        6.0936378     -4.1641588     -1.4121996
P       11.2053989     -8.1605330      0.9233999
O       10.3025674     -7.8380385      2.1727342
C        9.1271392     -8.5876714      2.4656816
X        9.3948750     -9.6492276      3.5211982
X       11.2946785    -10.6723897      4.4529092
X       13.6586300     -9.5751322      4.6726987
X       14.7813578    -10.4345194      6.6821755
P        8.3344258     -7.7211001      6.6199775
O        8.9621634     -8.3307044      7.9726579
C        8.4547168     -9.5477630      8.5055162
X        8.0466102     -9.4265263      9.9597416
X        8.4005338     -7.8133080     11.6130336
X        8.6336884     -5.2641101     11.0659279
X        7.5283668     -3.9849322     12.8347134
P        4.4525589     -8.4627705      9.2788557
O        3.8322849     -7.6771814     10.5269329
C        3.0313391     -8.3289549     11.5336877
X        2.0969244     -7.3601573     12.2261286
X        2.0318639     -5.0248488     12.4492576
X        3.0947464     -2.7527252     10.7566752
P       -0.7779218     -7.5935252      9.8793362
O       -1.6098269     -6.2562376      9.8174112
C       -2.7433731     -6.1168021     10.6714460
X       -3.3873661     -4.7490239     10.5333635
X       -2.7827591     -2.7655835      9.4357100
X       -0.8579587     -2.1316821      7.1412292
P       -6.0948917     -5.6920732      8.0368781
O       -6.7376582     -4.3507587      7.4280381
C       -7.7180421     -3.5797095      8.1299403
X       -8.3185020     -2.4623597      7.2851845
X       -7.5564193     -1.1474228      5.5057129
X       -5.5798020     -1.4348285      3.2568015
P      -11.3848011     -4.3660074      6.0745068
O      -11.6342875     -4.1737737      4.5223107
C      -11.6633043     -2.8747094      3.9350947
X      -11.9428905     -3.0126145      2.4578826
X      -11.5101042     -4.6192499      0.8132165
X      -10.9100657     -7.5920829      0.8123791
P      -15.6486545     -2.1312480      2.4615625
O      -15.9738321     -1.0241867      1.3774230
C      -16.5957345     -1.4190536      0.1402425
X      -16.7903807     -0.2363976     -0.7792572
X      -17.4061954      1.9944718     -0.5217737
X      -17.5950784      3.7891573      1.8518099
P      -13.3917417     -0.4694772     -2.5933260
O      -13.5408451     -0.4742649     -4.1638341
C      -12.6599600      0.1743610     -5.0585668
X      -12.9587248     -0.2843950     -6.4869584
X      -13.8045960     -2.2409212     -7.4537648
X      -15.5915001     -4.4518309     -6.4139796
P      -15.1491691      2.6236787     -7.6906561
O      -14.4681894      3.4679263     -8.8691902
C      -13.9113420      2.7987289    -10.0250554
X      -13.2172050      3.7558607    -10.9974194
X      -13.5572809      5.9712822    -11.5735871
X      -15.0933614      8.2304228    -10.2124534
P       -9.7963075      3.9072896     -9.4419381
O       -8.9086274      5.1794399     -9.8770447
C       -7.4857464      5.1079206    -10.2178535
X       -6.8074896      6.4343947    -10.5880698
X       -7.5093042      8.4469985    -11.5420525
X       -9.9599316      9.4855538    -11.4100356
X      -10.2750566     11.6542178    -11.5602187
P       -5.3043966      7.1169786     -7.0832707
O       -4.8979088      8.6321080     -6.7486670
C       -5.6665471      9.5293591     -5.9040439
X       -5.7040135      8.9552174     -4.4979247
X       -5.0832049      6.8811236     -3.5872938
X       -3.1461725      5.3599021     -4.5287409
X       -2.2016335      3.9037654     -3.2007860
P       -2.7289082     11.0752399     -3.2766351
O       -2.4895085     11.2133627     -1.7193675
C       -1.2865750     11.6809977     -1.0399744
X       -1.5953144     12.2284900      0.3952719
X       -3.3497328     13.5373604      1.3554386
X       -6.2979686     14.3008020      1.0387975
P       -0.9716813      8.9474486      2.1809551
O       -0.4824701      8.9114977      3.6389886
C       -1.0398236      9.2010385      4.9290892
X       -0.8718001      7.9891913      5.8917446
X       -1.0138744      5.6249159      5.7894581
X       -0.4755834      3.5984005      4.1155554
X        0.5080153      1.9786919      5.0874999
P        2.3798373      9.1880277      7.4819677
O        2.6005669      8.6268919      8.9601878
C        3.0705765      9.4923635     10.0053911
X        3.2493494      8.5676434     11.2097043
X        2.5412842      6.3694805     11.6968735
X        1.9910128      4.4255739     10.0367202
X        2.4782360      2.2514191     11.0301297
P        7.0930237      7.9838153     10.8144895
O        7.5113175      6.5393083     11.3366927
C        8.4772031      5.7592038     10.6416914
X        7.9649078      5.5250131      9.2397800
X        8.3794006      6.4345182      7.1165682
X       10.5633567      7.9841563      5.7480197
P        9.6045908      2.1874368      8.6501161
O        9.7121946      1.9357381      7.0788692
C       10.8178514      1.2314137      6.5199347
X       10.7176766      1.0845395      5.0089829
X       11.6358317      2.1999668      3.1582363
X       14.1196636      3.8819838      2.9256848
P       12.8929008     -2.0209049      4.8468191
O       13.6938481     -2.1243341      3.4709203
C       13.2739172     -3.0331253      2.4504328
X       14.1405924     -2.9077727      1.2103245
X       15.6590503     -1.3106526      0.4007657
X       17.0836432      0.2502975      1.9532048
X       18.9301895      1.3171994      0.7510522
   142
  Step:         1425 Total energy:    2267.8306950281340      Temperature:   0.61600000000000055     
O       -6.9463493     -2.7851241     -8.8969718
C       -7.0521886     -3.4957389    -10.1352908
X       -6.4799243     -2.6467660    -11.2579930
X       -5.8775240     -0.3892833    -11.4595904
X       -4.7436832      0.9941860     -9.5388322
X       -3.2880496      2.7425602    -10.4547506
P       -2.9538180     -4.2017632    -11.3114893
O       -1.9136578     -3.2046774    -11.9906065
C       -1.4920021     -3.2923127    -13.3500183
X       -0.4169006     -2.2589542    -13.6450132
X        0.1039522     -0.1010720    -12.8945243
X       -0.4457412      0.8822085    -10.5285956
X        1.2385373      2.5426468     -9.8916879
P        2.7244180     -4.2599101    -12.7645592
O        3.2487640     -3.8428895    -11.3238764
C        4.0200326     -2.6765059    -11.0202048
X        4.4771767     -2.7776636     -9.5690967
X        3.8838440     -4.1620416     -7.7662889
X        3.1814509     -6.6435316     -8.2464756
X        3.5993398     -8.0815993     -6.3157606
P        7.9170243     -4.2064556    -10.3186333
O        8.8316396     -4.2421381     -8.9981127
C       10.1059271     -4.8652445     -8.8806682
X       10.8825510     -4.3232683     -7.6905158
X       10.8455216     -2.3252761     -6.4358348
X        8.6796015     -0.8868479     -5.9802676
X        8.8855899      0.5540935     -4.0142825
P       10.0149343     -6.9951211     -5.0440529
O       10.0665522     -6.3591210     -3.5849318
C       11.2756518     -6.1151683     -2.8584427
X       10.9505418     -5.3412009     -1.5936675
X        9.0811421     -4.1784196     -0.7901760
X        6.0888972     -4.1515226     -1.4271648
P       11.2333885     -8.1656252      0.9167971
O       10.2679313     -7.8345538      2.1714357
C        9.1049944     -8.6081154      2.5082894
X        9.3901201     -9.6557056      3.5526377
X       11.2813321    -10.6921346      4.4567663
X       13.6371343     -9.5531308      4.6753998
X       14.7489112    -10.4418526      6.6639771
P        8.3114700     -7.7422733      6.6245327
O        8.9258446     -8.3531417      7.9529094
C        8.4898366     -9.5825167      8.5038504
X        8.0640096     -9.4045633      9.9566988
X        8.4299959     -7.8113000     11.6339883
X        8.6090998     -5.2644996     11.0541654
X        7.5338848     -3.9775314     12.8418745
P        4.4943863     -8.4820763      9.2947424
O        3.8027534     -7.6877846     10.4829449
C        2.9820315     -8.3520830     11.4493565
X        2.1370347     -7.3561252     12.2243569
X        2.0341043     -5.0266897     12.4089277
X        3.0526941     -2.7591793     10.7408855
P       -0.7658473     -7.6298040      9.8750428
O       -1.6405694     -6.2875055      9.7805638
C       -2.7480565     -6.0996130     10.6615898
X       -3.3677802     -4.7269622     10.4916868
X       -2.7749617     -2.7249512      9.4235626
X       -0.8757436     -2.1172179      7.0969042
P       -6.0590730     -5.6861422      8.0359237
O       -6.7450623     -4.3754972      7.4480985
C       -7.6933009     -3.5788404      8.1491859
X       -8.2668033     -2.4782432      7.2790366
X       -7.5219711     -1.1296243      5.5012778
X       -5.5523484     -1.4601947      3.2482740
P      -11.3504736     -4.3841071      6.0736571
O      -11.6780927     -4.1601799      4.5361393
C      -11.5790131     -2.8861709      3.9138826
X      -11.9171143     -3.0528107      2.4410266
X      -11.5287883     -4.6670012      0.8124518
X      -10.9362634     -7.5943089      0.8145939
P      -15.6555000     -2.1273264      2.5261170
O      -16.0007504     -1.0387880      1.3855128
C      -16.5959112     -1.4023628      0.1127763
X      -16.7864530     -0.2213428     -0.8454286
X      -17.4713225      2.0155414     -0.5930785
X      -17.6188544      3.7912573      1.8322013
P      -13.3816139     -0.4868927     -2.5929241
O      -13.5489309     -0.5118148     -4.1851491
C      -12.6623500      0.1797675     -5.0711461
X      -12.9376351     -0.3057150     -6.4895229
X      -13.8340465     -2.2485197     -7.4210577
X      -15.6055977     -4.4467024     -6.4182173
P      -15.1275517      2.6220653     -7.6612894
O      -14.4653157      3.4402141     -8.8493457
C      -13.9278066      2.7413841     -9.9830077
X      -13.2814800      3.7601527    -10.9426210
X      -13.5504182      6.0052703    -11.6131754
X      -15.1119226      8.2276904    -10.2055287
P       -9.7380898      3.9024788     -9.4869760
O       -8.9208335      5.1939842     -9.9753413
C       -7.4959877      5.1265071    -10.1934039
X       -6.8293533      6.4611064    -10.5445278
X       -7.4856266      8.5046524    -11.4883039
X       -9.9431354      9.4721204    -11.3935828
X      -10.2673407     11.6157071    -11.5255419
P       -5.2611631      7.0448073     -7.0431857
O       -4.9253416      8.5887740     -6.8158775
C       -5.6844996      9.4761226     -5.9661714
X       -5.6711947      8.9947353     -4.5318586
X       -5.0808152      6.9269418     -3.5963893
X       -3.1441213      5.3815360     -4.5239595
X       -2.2104756      3.8897158     -3.2145803
P       -2.7096642     11.1827496     -3.2628334
O       -2.5245911     11.2285646     -1.6524350
C       -1.3088036     11.5811626     -0.9810743
X       -1.6767034     12.1629295      0.3561357
X       -3.3885517     13.5237021      1.1767662
X       -6.2860471     14.3373453      0.9907650
P       -1.1402724      8.8207701      2.1841007
O       -0.4506684      8.8387406      3.6539742
C       -1.2385403      9.1182737      4.8539554
X       -0.9654711      8.0460598      5.8175266
X       -0.8923924      5.7126931      5.7483581
X       -0.4679281      3.6706961      4.1493120
X        0.5612011      1.9185665      5.0617852
P        2.3575844      9.2622900      7.4400938
O        2.6417613      8.6968372      8.8975672
C        3.0255248      9.4636082     10.0422951
X        3.2686383      8.5332033     11.2053404
X        2.6016329      6.3492548     11.7139398
X        2.0069976      4.4006097     10.0254994
X        2.5000117      2.2118059     11.0363406
P        7.0977297      8.0160396     10.7852237
O        7.5180502      6.5941697     11.3751694
C        8.4543805      5.7469248     10.6871184
X        7.9965502      5.5136083      9.2505657
X        8.4337376      6.4099664      7.1267258
X       10.5866428      7.9811098      5.7387097
P        9.6135763      2.2198210      8.6106780
O        9.6999807      1.8557586      7.0644040
C       10.8773639      1.2729738      6.5167562
X       10.7347951      1.1113280      5.0211243
X       11.6314762      2.2167124      3.1634155
X       14.1203933      3.8747596      2.9152222
P       12.8947396     -2.0030608      4.8612270
O       13.6638192     -2.1413679      3.4708212
C       13.2704361     -3.0464606      2.4327947
X       14.1726346     -2.9223451      1.2118670
X       15.6949945     -1.3305398      0.4090661
X       17.0777609      0.2542331      1.9750019
X       18.9221414      1.3208001      0.7619762
   142
  Step:         1450 Total energy:    2259.8380201838431      Temperature:   0.61599999999999944     
O       -6.9741343     -2.7867688     -8.8794072
C       -7.0443212     -3.4726266    -10.1302927
X       -6.4612055     -2.6179515    -11.2419742
X       -5.8017391     -0.3816780    -11.4765319
X       -4.7563196      1.0261646     -9.5285066
X       -3.2860488      2.7565626    -10.4194099
P       -2.9705598     -4.1700260    -11.3191985
O       -1.8927379     -3.1654218    -11.9210293
C       -1.4550023     -3.2709432    -13.2939583
X       -0.3993784     -2.2232856    -13.6255156
X        0.1305205     -0.0544855    -12.9276206
X       -0.4658443      0.8895769    -10.5563303
X        1.2217036      2.5372004     -9.8956925
P        2.7088132     -4.2509028    -12.7335303
O        3.2453054     -3.8769230    -11.2861601
C        3.9634730     -2.6777895    -10.9804252
X        4.4457440     -2.7645245     -9.5522249
X        3.9557200     -4.1650225     -7.7453299
X        3.1947911     -6.6198568     -8.2370077
X        3.5865539     -8.0716949     -6.3157144
P        7.9231682     -4.1832286    -10.2900458
O        8.7818722     -4.2761341     -8.9470379
C       10.0822442     -4.8675493     -8.8573157
X       10.8443064     -4.3026269     -7.6847501
X       10.8277624     -2.3385532     -6.4209087
X        8.6858894     -0.8856185     -5.9815307
X        8.8644487      0.5754602     -4.0054162
P       10.0432621     -6.9930305     -5.0390150
O       10.0571660     -6.3669422     -3.5745478
C       11.2581141     -6.1369274     -2.8397522
X       10.9640067     -5.3449112     -1.5892446
X        9.1018531     -4.1830258     -0.7530976
X        6.0875777     -4.1388068     -1.4404371
P       11.2253227     -8.1662962      0.9421532
O       10.2827054     -7.8733426      2.1740010
C        9.0912897     -8.5945895      2.5182915
X        9.3748129     -9.6922844      3.5479641
X       11.2919791    -10.7105807      4.4272428
X       13.6134442     -9.5335638      4.6813700
X       14.7293146    -10.4450433      6.6519076
P        8.2817051     -7.7341800      6.6291593
O        8.9261140     -8.3684013      7.9475083
C        8.5154117     -9.6266748      8.5116821
X        8.1382594     -9.4332436      9.9753399
X        8.4460304     -7.8063122     11.6239432
X        8.5863826     -5.2599627     11.0538496
X        7.5430398     -3.9627429     12.8465198
P        4.4971121     -8.4983345      9.2850645
O        3.7919667     -7.6983071     10.4656362
C        3.0283161     -8.3696774     11.4511981
X        2.1843392     -7.3584129     12.2164662
X        2.0195063     -5.0181597     12.4372594
X        3.0154021     -2.7606855     10.7228034
P       -0.7949727     -7.6661935      9.8275193
O       -1.6514570     -6.3318289      9.7981840
C       -2.7409049     -6.0722066     10.6791002
X       -3.3385387     -4.6854623     10.4734923
X       -2.7114391     -2.6838711      9.4409029
X       -0.8910262     -2.1022571      7.0562269
P       -6.0392240     -5.6759956      8.0306446
O       -6.7642850     -4.4044760      7.3973589
C       -7.6539560     -3.5791363      8.1691122
X       -8.2165512     -2.4641044      7.2980255
X       -7.4967053     -1.1599384      5.4735420
X       -5.5266266     -1.4833127      3.2453182
P      -11.3242092     -4.4138174      6.0962994
O      -11.6819914     -4.1474497      4.5626868
C      -11.5475860     -2.8953459      3.9006799
X      -11.8903065     -3.0014008      2.4071245
X      -11.5617908     -4.6435022      0.7236853
X      -10.9540968     -7.6122091      0.8181608
P      -15.6571202     -2.0883194      2.5546258
O      -16.0784143     -1.0635791      1.3843499
C      -16.6004439     -1.4070103      0.1093631
X      -16.7597506     -0.2152291     -0.8273136
X      -17.5107678      2.0152458     -0.6405103
X      -17.6371645      3.7929747      1.8100300
P      -13.3785921     -0.4895273     -2.5876186
O      -13.5592694     -0.5297800     -4.1731036
C      -12.6739326      0.1597574     -5.0706180
X      -12.8930385     -0.2934439     -6.4987235
X      -13.8368193     -2.2352401     -7.4661698
X      -15.6208809     -4.4471343     -6.4175106
P      -15.1223562      2.6251338     -7.6090888
O      -14.4450781      3.4152061     -8.8331416
C      -13.9143218      2.8035602     -9.9978477
X      -13.2651617      3.7429461    -10.9470706
X      -13.6413708      5.9515776    -11.5922232
X      -15.1261174      8.2299578    -10.1976299
P       -9.6750020      3.9180663     -9.5242424
O       -8.9130393      5.2097613    -10.0412585
C       -7.5236254      5.1163392    -10.2502909
X       -6.8656607      6.4727667    -10.4665764
X       -7.4671657      8.5696427    -11.3608770
X       -9.9310815      9.4395404    -11.3653879
X      -10.2471159     11.5944916    -11.4967157
P       -5.2419394      7.0086297     -7.0226575
O       -4.9501436      8.5760918     -6.8758181
C       -5.6698526      9.4577134     -6.0329302
X       -5.5992605      8.9643198     -4.5915089
X       -4.9142809      7.0215167     -3.4507349
X       -3.1547147      5.3860262     -4.5243354
X       -2.2294879      3.8981721     -3.2355881
P       -2.6837665     11.2769230     -3.2401817
O       -2.6432516     11.1913894     -1.6750870
C       -1.4338323     11.5442993     -1.0444682
X       -1.6953282     12.1125958      0.3291490
X       -3.4094408     13.4506245      1.2169793
X       -6.2672009     14.3699774      0.9395363
P       -1.3025272      8.6643006      2.2195946
O       -0.4957275      8.9102304      3.5439854
C       -1.2932769      9.1177965      4.7186550
X       -1.0603214      8.0767154      5.8002582
X       -0.7587356      5.6919879      5.9090439
X       -0.4283844      3.7005825      4.2055349
X        0.5819581      1.9156863      5.0035258
P        2.3306028      9.3590236      7.3807099
O        2.6429469      8.7110427      8.8268573
C        2.9980919      9.4252089     10.0374642
X        3.3105765      8.4566048     11.1764836
X        2.6162922      6.2979493     11.7372891
X        2.0435771      4.3831943     10.0362459
X        2.5178424      2.1876655     11.0327942
P        7.0620256      8.0461340     10.7704465
O        7.5549975      6.6572208     11.3748868
C        8.4541323      5.7798521     10.6902107
X        7.9769219      5.5501837      9.2635693
X        8.4454816      6.4253057      7.1360436
X       10.6113499      7.9787629      5.7348426
P        9.6369679      2.2051685      8.5982868
O        9.6804957      1.8169347      7.0610065
C       10.9043473      1.3245978      6.5208938
X       10.7843130      1.1258460      5.0265990
X       11.6288691      2.2175427      3.1333106
X       14.1233983      3.8711540      2.9059712
P       12.9097570     -2.0063485      4.8680727
O       13.6335248     -2.1335608      3.4501667
C       13.2560489     -3.0497114      2.4163684
X       14.2091809     -2.9362659      1.2328490
X       15.7128240     -1.3339549      0.4218834
X       17.0760374      0.2597740      1.9961942
X       18.9144220      1.3249496      0.7744585
   142
  Step:         1475 Total energy:    2254.7112123495904      Temperature:   0.61600000000000021     
O       -6.9842564     -2.7916399     -8.8527913
C       -7.0528512     -3.4395284    -10.1282235
X       -6.4451159     -2.5947381    -11.2430357
X       -5.7484719     -0.3700848    -11.4932176
X       -4.7706762      1.0416827     -9.5143882
X       -3.2771234      2.7811050    -10.3871544
P       -2.9848409     -4.1375832    -11.3187501
O       -1.8818507     -3.1315614    -11.8874383
C       -1.4315229     -3.2372017    -13.2493402
X       -0.3801182     -2.2092181    -13.6084449
X        0.1135491     -0.0202761    -12.9640073
X       -0.4802966      0.8978364    -10.5818155
X        1.2021586      2.5338295     -9.8937072
P        2.6839928     -4.2477486    -12.7110592
O        3.2501244     -3.9093951    -11.2581981
C        3.8982478     -2.6706067    -10.9488100
X        4.4360906     -2.7399416     -9.5350204
X        4.0222669     -4.1533982     -7.7090492
X        3.2052005     -6.5965618     -8.2374137
X        3.5733082     -8.0704900     -6.3049079
P        7.9254097     -4.1668790    -10.2519390
O        8.7186007     -4.2825419     -8.8899050
C       10.0482520     -4.8596327     -8.8614581
X       10.8361942     -4.3217270     -7.6472000
X       10.8157967     -2.3367368     -6.3854133
X        8.6817706     -0.8762904     -5.9728165
X        8.8479775      0.5832800     -4.0119870
P       10.0644737     -6.9841840     -5.0506357
O       10.0521421     -6.3878853     -3.5689057
C       11.2651066     -6.0941822     -2.8549560
X       10.9282961     -5.3318453     -1.5703471
X        9.0633848     -4.1751122     -0.7740758
X        6.0998895     -4.1299716     -1.4499030
P       11.2048404     -8.1853036      0.9632260
O       10.2871272     -7.8819239      2.2500547
C        9.0854317     -8.6245911      2.4834821
X        9.3507293     -9.7089292      3.5186617
X       11.2765319    -10.7292195      4.3699734
X       13.5829815     -9.5162674      4.6838471
X       14.7215626    -10.4493072      6.6483699
P        8.2624852     -7.7406878      6.6394222
O        8.9415894     -8.3590787      7.9431865
C        8.5695299     -9.6294698      8.5276706
X        8.1606179     -9.4918392      9.9800390
X        8.4662088     -7.8293851     11.5994019
X        8.5653123     -5.2517179     11.0534296
X        7.5499630     -3.9420851     12.8527190
P        4.4903030     -8.5283302      9.2499027
O        3.8398590     -7.7023104     10.4555375
C        3.1333510     -8.3149917     11.5393630
X        2.1389822     -7.3739018     12.1991482
X        2.0530314     -5.0468720     12.4388799
X        2.9768039     -2.7650995     10.7043125
P       -0.8300593     -7.7071928      9.7857824
O       -1.6537076     -6.3295160      9.7907447
C       -2.7277196     -6.0509387     10.7071957
X       -3.3181821     -4.6508859     10.5197625
X       -2.6502817     -2.6628401      9.4646272
X       -0.9021724     -2.0877848      7.0121838
P       -6.0379820     -5.6795788      8.0087907
O       -6.7582367     -4.4227708      7.3643522
C       -7.5811584     -3.5516553      8.1498755
X       -8.2247386     -2.4672104      7.3174974
X       -7.4967383     -1.1978178      5.4814679
X       -5.5011990     -1.5095069      3.2406842
P      -11.2988022     -4.4301776      6.1141944
O      -11.6520651     -4.1351992      4.5613874
C      -11.5564197     -2.8913136      3.8412346
X      -11.8804365     -3.0121517      2.3634070
X      -11.5605030     -4.6793064      0.7428541
X      -10.9765167     -7.6169345      0.8197895
P      -15.6544554     -2.0466055      2.5535503
O      -16.1256981     -1.0332051      1.4074124
C      -16.6161165     -1.4296063      0.1301736
X      -16.7740427     -0.2226498     -0.7912455
X      -17.4722097      1.9823324     -0.5645066
X      -17.6551301      3.7878757      1.7772662
P      -13.3840812     -0.4840093     -2.5843732
O      -13.5449847     -0.5221803     -4.1621414
C      -12.6467025      0.1128257     -5.0770789
X      -12.9244425     -0.3299385     -6.4912512
X      -13.8602999     -2.2593454     -7.4604495
X      -15.6291489     -4.4416045     -6.4210855
P      -15.1042676      2.6339480     -7.5785758
O      -14.4337194      3.4363584     -8.8083258
C      -13.8517614      2.7423342     -9.9396056
X      -13.2353295      3.7091907    -10.9695485
X      -13.7224770      5.9368271    -11.6248740
X      -15.1430962      8.2370194    -10.1880595
P       -9.6730145      3.9196622     -9.5569451
O       -8.8970169      5.2273963    -10.0562896
C       -7.5102779      5.1257701    -10.3208270
X       -6.8262967      6.4579692    -10.4539332
X       -7.4327989      8.6048184    -11.2012231
X       -9.9362967      9.4107503    -11.3291106
X      -10.2225100     11.5751362    -11.4721964
P       -5.2562405      6.9997613     -7.0347607
O       -4.8827671      8.5437173     -6.9062047
C       -5.6315550      9.3901386     -6.0411386
X       -5.4899899      9.0129704     -4.5608782
X       -4.7581137      7.1324890     -3.3807039
X       -3.1652062      5.3955746     -4.5339417
X       -2.2493958      3.9015550     -3.2539199
P       -2.7474989     11.3099047     -3.2968281
O       -2.7173167     11.1893148     -1.7048596
C       -1.4878813     11.5238145     -1.0827578
X       -1.7724768     11.9917689      0.3499711
X       -3.4150375     13.3841481      1.3980184
X       -6.2410078     14.3947300      0.8843060
P       -1.4550488      8.5829834      2.1787790
O       -0.6413713      8.8824506      3.5137354
C       -1.2665538      9.1103973      4.7484714
X       -0.9611462      8.0385082      5.8053432
X       -0.7845302      5.6786106      5.9947250
X       -0.3723841      3.7443542      4.2934034
X        0.5857626      1.9372752      4.9287384
P        2.2706488      9.4485024      7.3460336
O        2.6205795      8.6974780      8.7177597
C        3.0228095      9.3648868      9.9246102
X        3.2546853      8.4043600     11.1178985
X        2.6283755      6.2318371     11.7907553
X        2.0904472      4.3608326     10.0556243
X        2.5309196      2.1689712     11.0196677
P        7.0349564      8.0750989     10.7506245
O        7.5817290      6.7054752     11.3703566
C        8.4808070      5.8586000     10.6472611
X        7.9619904      5.5804282      9.2438977
X        8.4139826      6.4899348      7.1289836
X       10.6333726      7.9718825      5.7359768
P        9.6482502      2.1702666      8.6251894
O        9.6930547      1.8316478      7.0695176
C       10.9174571      1.3571389      6.5092590
X       10.8049954      1.1401542      5.0133539
X       11.6497952      2.1874729      3.0966190
X       14.1260586      3.8689482      2.8949749
P       12.9291574     -2.0249144      4.8578565
O       13.6337364     -2.1153728      3.4317904
C       13.2530602     -3.0457189      2.4157102
X       14.2214079     -2.9600320      1.2467369
X       15.7167243     -1.3424239      0.4518605
X       17.0752447      0.2655550      2.0148205
X       18.9054666      1.3282500      0.7878015
   142
  Step:         1500 Total energy:    2256.9811274320773      Temperature:   0.61599999999999977     
O       -6.9670192     -2.7840696     -8.8526403
C       -7.0728433     -3.4081140    -10.1367943
X       -6.4556255     -2.5652151    -11.2468589
X       -5.7589900     -0.3406986    -11.4914940
X       -4.7714838      1.0543759     -9.5068532
X       -3.2725921      2.8056820    -10.3523473
P       -2.9772936     -4.1100351    -11.3049594
O       -1.8952413     -3.1065459    -11.9018491
C       -1.4473618     -3.2301977    -13.2416412
X       -0.3858475     -2.2007788    -13.5918142
X        0.0975870      0.0149512    -12.9893399
X       -0.4953367      0.9087379    -10.6073457
X        1.1821926      2.5362801     -9.8875037
P        2.6709292     -4.2643437    -12.6914085
O        3.2407533     -3.8949539    -11.2578125
C        3.8815095     -2.6628377    -10.9302622
X        4.4233556     -2.7314180     -9.5070878
X        4.0403223     -4.1560991     -7.6956198
X        3.2220104     -6.5767421     -8.2254309
X        3.5551687     -8.0624641     -6.3054553
P        7.8951746     -4.1422089    -10.2156649
O        8.7274314     -4.2945844     -8.8473958
C       10.0310547     -4.8530601     -8.7884737
X       10.8231213     -4.2964431     -7.6371970
X       10.8077303     -2.3483286     -6.3417857
X        8.6689995     -0.8705077     -5.9714779
X        8.8372918      0.5908754     -4.0205827
P       10.0702082     -6.9911098     -5.0570769
O       10.0764244     -6.3996661     -3.5816439
C       11.2575437     -6.0404722     -2.8753412
X       10.9199684     -5.3313507     -1.5670559
X        9.0880655     -4.1113459     -0.7289576
X        6.1028212     -4.1219719     -1.4634353
P       11.1747726     -8.1975368      0.9886582
O       10.2743703     -7.9022287      2.2577423
C        9.0786177     -8.6150960      2.4899221
X        9.3328792     -9.7157187      3.4822670
X       11.2532672    -10.7385141      4.3357154
X       13.5499196     -9.5079917      4.6922086
X       14.7148846    -10.4468498      6.6364479
P        8.2629668     -7.7717351      6.6434592
O        8.9474509     -8.3643979      7.9596026
C        8.6079812     -9.6421865      8.4966075
X        8.1567682     -9.4619440      9.9350671
X        8.4444376     -7.8128323     11.5837516
X        8.5467297     -5.2555108     11.0503961
X        7.5544971     -3.9179493     12.8589480
P        4.4905770     -8.5612189      9.2385053
O        3.8778377     -7.7185350     10.4519513
C        3.1381407     -8.3451762     11.5130843
X        2.1986015     -7.3508865     12.2000867
X        1.9725359     -5.0269151     12.4017672
X        2.9396425     -2.7715883     10.6855116
P       -0.8594910     -7.7156556      9.7653022
O       -1.6805687     -6.3378260      9.7619342
C       -2.6980068     -6.0326495     10.7264488
X       -3.2850537     -4.6433570     10.5409879
X       -2.6120698     -2.6798562      9.4478696
X       -0.9133191     -2.0740892      6.9694479
P       -6.0272468     -5.6912208      7.9890998
O       -6.7346805     -4.3919887      7.3776759
C       -7.5901174     -3.5669949      8.1573618
X       -8.1773429     -2.4730907      7.2853755
X       -7.5058971     -1.1992171      5.4374486
X       -5.4830196     -1.5363332      3.2398808
P      -11.2809180     -4.4102870      6.0780502
O      -11.6009844     -4.1471371      4.5460607
C      -11.5522968     -2.8728647      3.8653045
X      -11.9254524     -3.0347745      2.3886273
X      -11.5527614     -4.6622673      0.7166681
X      -11.0018785     -7.6243878      0.8185758
P      -15.6468398     -2.0192860      2.5513264
O      -16.0946141     -0.9811328      1.4303782
C      -16.6318294     -1.4790130      0.1916034
X      -16.7841176     -0.3341509     -0.8126231
X      -17.4459873      1.9384719     -0.6526652
X      -17.6737121      3.7971843      1.7595562
P      -13.3898684     -0.4687044     -2.5663198
O      -13.5563903     -0.5115046     -4.1667298
C      -12.6014790      0.0651432     -5.0646852
X      -12.9575904     -0.3535066     -6.4834167
X      -13.8705982     -2.2710170     -7.5020146
X      -15.6407079     -4.4422023     -6.4244492
P      -15.0672794      2.6645558     -7.5807647
O      -14.4109701      3.4184995     -8.8151077
C      -13.7420306      2.7231410     -9.8717210
X      -13.2816959      3.7117841    -10.9446530
X      -13.7892114      5.9059485    -11.5984471
X      -15.1564263      8.2389586    -10.1856032
P       -9.7044806      3.9286803     -9.5897495
O       -8.8711248      5.2103676    -10.0303086
C       -7.4532030      5.1014792    -10.3446503
X       -6.7751357      6.4547519    -10.5426844
X       -7.4374030      8.6238065    -11.0991756
X       -9.9390310      9.4008659    -11.2858064
X      -10.2009530     11.5489704    -11.4516192
P       -5.2806162      6.9920116     -7.0654671
O       -4.8007741      8.4969049     -6.8270073
C       -5.5156067      9.4388511     -6.0245989
X       -5.4741230      9.0227015     -4.5642827
X       -4.6996894      7.1872733     -3.3444301
X       -3.1623229      5.4175987     -4.5530117
X       -2.2663695      3.8935869     -3.2696046
P       -2.8487308     11.3244589     -3.3813762
O       -2.6994517     11.2740843     -1.7847659
C       -1.5567567     11.5272309     -0.9745090
X       -1.9455383     11.9291028      0.4178563
X       -3.5253911     13.2717000      1.4680263
X       -6.1920862     14.4124850      0.8269397
P       -1.5979698      8.5746054      2.1181480
O       -0.7294455      8.6529345      3.5302348
C       -1.2279679      9.0406552      4.7951857
X       -0.8559837      8.0298261      5.8682316
X       -0.8184701      5.7299780      6.1225708
X       -0.3538350      3.8309005      4.3308014
X        0.6177903      1.9233996      4.8785095
P        2.2069550      9.5237361      7.3310976
O        2.6248865      8.6471807      8.6103040
C        2.9549733      9.2690249      9.8367015
X        3.2299877      8.3991664     11.0394970
X        2.6114110      6.2732287     11.7903640
X        2.1375153      4.3530034     10.0650794
X        2.5445144      2.1294842     11.0085472
P        7.0203631      8.1028834     10.7307350
O        7.5831150      6.7406950     11.3284077
C        8.4996561      5.8994842     10.6214145
X        8.0008968      5.6324463      9.2036771
X        8.3510552      6.5402376      7.0595751
X       10.6506994      7.9631290      5.7405721
P        9.6286612      2.1592857      8.6652033
O        9.7521820      1.8682125      7.0992742
C       10.9430123      1.3698852      6.4889430
X       10.7830641      1.1358743      4.9928007
X       11.6811929      2.1389811      3.0767165
X       14.1293926      3.8702347      2.8796556
P       12.9408984     -2.0294497      4.8351941
O       13.6651337     -2.1248883      3.4224638
C       13.2655402     -3.0629689      2.4277450
X       14.2090814     -2.9674467      1.2463396
X       15.7321207     -1.3604111      0.4740713
X       17.0696502      0.2703093      2.0315209
X       18.8995105      1.3351715      0.7972616
   142
  Step:         1525 Total energy:    2258.2176154004337      Temperature:   0.61599999999999988     
O       -6.9226985     -2.7619070     -8.8758294
C       -7.0881024     -3.3879827    -10.1487796
X       -6.4857732     -2.5314866    -11.2504535
X       -5.8179626     -0.2939097    -11.4740221
X       -4.7551710      1.0669943     -9.5000146
X       -3.2715335      2.8281992    -10.3092702
P       -2.9671999     -4.0901841    -11.2701021
O       -1.9140878     -3.0785547    -11.9273759
C       -1.4798345     -3.2215368    -13.2757419
X       -0.4006921     -2.2001282    -13.6145417
X        0.0928765      0.0073106    -12.9957315
X       -0.5125353      0.9244602    -10.6270365
X        1.1645223      2.5435502     -9.8741456
P        2.6663344     -4.2893139    -12.6760660
O        3.2317296     -3.8635749    -11.2337443
C        3.9131145     -2.6471440    -10.9262042
X        4.4101297     -2.7141006     -9.4864680
X        4.0150980     -4.1178354     -7.6510153
X        3.2422996     -6.5677536     -8.2089036
X        3.5365937     -8.0544449     -6.3042809
P        7.8677987     -4.1209618    -10.1645705
O        8.7247232     -4.2762907     -8.8284745
C       10.0309532     -4.8289896     -8.7786940
X       10.8330999     -4.2931285     -7.5963177
X       10.8098264     -2.3233159     -6.3067313
X        8.6484892     -0.8726488     -5.9766676
X        8.8332032      0.6040224     -4.0207142
P       10.0736341     -7.0126622     -5.0598792
O       10.0814336     -6.3947203     -3.5719653
C       11.2497252     -6.0185135     -2.8360002
X       10.9173497     -5.2820455     -1.5564473
X        9.0772698     -4.1060046     -0.7099392
X        6.1152829     -4.1134520     -1.4744064
P       11.1628717     -8.2050784      0.9798812
O       10.2415218     -7.8760860      2.2456030
C        9.0175994     -8.5825074      2.5157417
X        9.3067587     -9.7273360      3.4914204
X       11.2483203    -10.7515966      4.3410059
X       13.5149087     -9.5065092      4.7070295
X       14.7104661    -10.4406826      6.6208503
P        8.2780285     -7.8136269      6.6299208
O        8.9858164     -8.3774352      7.9315782
C        8.5973946     -9.6207894      8.4683370
X        8.1511365     -9.4385575      9.9071922
X        8.3798300     -7.8055701     11.5781459
X        8.5288997     -5.2502298     11.0549255
X        7.5656541     -3.9000946     12.8590658
P        4.5036694     -8.5971406      9.2480275
O        3.8917092     -7.7365881     10.4279250
C        3.1074885     -8.3435977     11.4520153
X        2.1843621     -7.3639873     12.1620058
X        1.9114175     -5.0417170     12.3811025
X        2.9053841     -2.7751038     10.6636376
P       -0.8510898     -7.6935902      9.7864449
O       -1.7123190     -6.3661356      9.7360999
C       -2.6653355     -6.0472731     10.7406848
X       -3.2562860     -4.6688991     10.5066186
X       -2.6109802     -2.7024391      9.3970799
X       -0.9214709     -2.0620853      6.9291069
P       -5.9878150     -5.6862802      7.9974826
O       -6.6755163     -4.3844125      7.4050503
C       -7.5895210     -3.5745823      8.1386728
X       -8.1871339     -2.4707007      7.2484506
X       -7.4902594     -1.1863947      5.4176187
X       -5.4632155     -1.5671349      3.2400937
P      -11.2542990     -4.3703688      6.0394576
O      -11.5437441     -4.1813251      4.4880183
C      -11.5992179     -2.8886649      3.8783119
X      -11.9361868     -3.0424683      2.4122665
X      -11.5751772     -4.6620571      0.7568569
X      -11.0286036     -7.6252967      0.8181322
P      -15.6360429     -1.9974735      2.5848463
O      -16.0148511     -0.9993110      1.3998613
C      -16.5989967     -1.4654127      0.1759936
X      -16.8465672     -0.3455135     -0.7794283
X      -17.4258379      1.8829170     -0.5556973
X      -17.6865794      3.7914172      1.7212375
P      -13.3947721     -0.4534905     -2.5504608
O      -13.5682841     -0.5022578     -4.1231117
C      -12.6282880      0.0164698     -5.0572813
X      -12.9341977     -0.3820320     -6.5028556
X      -13.8993743     -2.2506003     -7.5292614
X      -15.6517320     -4.4498461     -6.4248836
P      -15.0247916      2.6931221     -7.5660546
O      -14.3699325      3.4448131     -8.8193550
C      -13.7562728      2.7361053     -9.8868662
X      -13.2399331      3.6908607    -10.9109325
X      -13.8494312      5.8247929    -11.5671447
X      -15.1689112      8.2441378    -10.1800844
P       -9.7147876      3.9417341     -9.6076935
O       -8.8265801      5.2023307    -10.0271648
C       -7.4184455      5.0786361    -10.3990433
X       -6.7376838      6.4427020    -10.5758958
X       -7.4193465      8.5941214    -11.1679859
X       -9.9382351      9.3900604    -11.2216320
X      -10.1862977     11.5388806    -11.4306959
P       -5.3081505      6.9814490     -7.0753978
O       -4.7144168      8.4402032     -6.7829205
C       -5.4394471      9.4323142     -6.0287996
X       -5.5366280      9.0062614     -4.5814421
X       -4.7828759      7.1367755     -3.3909132
X       -3.1339030      5.4440295     -4.5553669
X       -2.2851086      3.8865863     -3.2942091
P       -2.8759945     11.3792905     -3.4308000
O       -2.7843872     11.3817493     -1.8345536
C       -1.6179004     11.5861908     -0.9890581
X       -1.9799990     11.8485548      0.4850112
X       -3.5517454     13.1698920      1.6610556
X       -6.1605274     14.4388561      0.7608894
P       -1.7112167      8.5339966      2.1489379
O       -0.8414981      8.3911320      3.4217306
C       -1.1811463      8.9689117      4.6877043
X       -0.9737425      8.0010651      5.9214806
X       -0.7030647      5.7069555      6.2758983
X       -0.3414327      3.8809063      4.3506800
X        0.6429246      1.9605267      4.8318071
P        2.1816430      9.5672867      7.3510585
O        2.7362839      8.6348885      8.5315141
C        2.8789943      9.3137208      9.7927080
X        3.2180611      8.4005608     10.9684006
X        2.5978055      6.2862967     11.7803701
X        2.1867202      4.3425756     10.0742215
X        2.5589111      2.0867577     10.9989692
P        7.0210864      8.1414478     10.7034059
O        7.5674393      6.7438349     11.2685179
C        8.5445687      5.9628377     10.5563917
X        8.0321444      5.6633427      9.1570765
X        8.3354681      6.5487282      7.0097325
X       10.6672431      7.9531985      5.7506481
P        9.5956788      2.1845944      8.6955712
O        9.7980316      1.9055610      7.1281584
C       10.9625479      1.3464920      6.5031695
X       10.7976911      1.1171811      4.9971496
X       11.7040359      2.1074954      3.0715437
X       14.1341875      3.8702528      2.8629916
P       12.9451143     -2.0142650      4.8206592
O       13.7011416     -2.1588126      3.4284934
C       13.2892226     -3.0940271      2.4323292
X       14.2030743     -2.9694681      1.2308518
X       15.7494031     -1.3712743      0.4852017
X       17.0661224      0.2731117      2.0470030
X       18.8950523      1.3428198      0.8106438
   142
  Step:         1550 Total energy:    2258.0063615977106      Temperature:   0.61600000000000044     
O       -6.8705028     -2.7356709     -8.8889225
C       -7.0874215     -3.3628940    -10.1575187
X       -6.5021353     -2.5044184    -11.2666969
X       -5.8643063     -0.2555937    -11.4493717
X       -4.7412923      1.0680150     -9.4832083
X       -3.2636052      2.8597457    -10.2691574
P       -2.9702828     -4.0520010    -11.2341266
O       -1.9328848     -3.0771060    -11.9484274
C       -1.5066553     -3.2144976    -13.3166690
X       -0.4159021     -2.2127328    -13.6661353
X        0.1049356     -0.0347076    -12.9962197
X       -0.5278940      0.9452851    -10.6346704
X        1.1495294      2.5532071     -9.8564608
P        2.6638519     -4.2923454    -12.6442116
O        3.2192592     -3.8543089    -11.2199228
C        3.9338675     -2.6504513    -10.9083322
X        4.4073051     -2.6821434     -9.4622837
X        3.9416476     -4.0803498     -7.6513134
X        3.2614330     -6.5476929     -8.2024398
X        3.5241528     -8.0572102     -6.2842546
P        7.8607258     -4.1127588    -10.1212750
O        8.7232507     -4.2250660     -8.7781551
C       10.0554405     -4.7864483     -8.7911478
X       10.8364564     -4.2775692     -7.5671186
X       10.7878100     -2.3018886     -6.3030748
X        8.6331126     -0.8728121     -5.9695611
X        8.8315803      0.6129475     -4.0263576
P       10.0826992     -7.0213630     -5.0211776
O       10.0599396     -6.4019860     -3.5550802
C       11.2593965     -6.0172317     -2.8356847
X       10.9379521     -5.2741297     -1.5248858
X        9.0813502     -4.0884601     -0.7019236
X        6.1272655     -4.1052872     -1.4816263
P       11.1374463     -8.1832699      0.9601038
O       10.1993729     -7.8543636      2.2042507
C        9.0163620     -8.5939557      2.5379236
X        9.2850967     -9.7167835      3.5081572
X       11.2026690    -10.7574615      4.3533178
X       13.4786971     -9.5006987      4.7162127
X       14.7146622    -10.4372427      6.6157830
P        8.2929383     -7.8288160      6.5975863
O        9.0518100     -8.3958438      7.8824876
C        8.5963979     -9.6127423      8.4861930
X        8.1374707     -9.4643820      9.9311261
X        8.3256780     -7.8111564     11.5730897
X        8.5165725     -5.2360160     11.0589478
X        7.5784892     -3.8833790     12.8621583
P        4.5206435     -8.6343992      9.2477492
O        3.8654461     -7.7218058     10.4027952
C        3.0602936     -8.3256419     11.4298849
X        2.0886687     -7.3809992     12.1127420
X        1.9521559     -5.0633482     12.3439944
X        2.8738201     -2.7791660     10.6443791
P       -0.8136718     -7.6972799      9.8107670
O       -1.6960717     -6.3640398      9.7241254
C       -2.6718477     -6.0635379     10.7235501
X       -3.2547548     -4.6799380     10.4952631
X       -2.6345761     -2.7335690      9.3372867
X       -0.9239477     -2.0513316      6.8923818
P       -5.9355182     -5.6718723      8.0327328
O       -6.6286800     -4.3697004      7.3866231
C       -7.5880035     -3.5669046      8.0923833
X       -8.1958453     -2.4612894      7.2451573
X       -7.4698634     -1.1745780      5.4299787
X       -5.4409699     -1.5988312      3.2407359
P      -11.2385959     -4.3535533      6.0181755
O      -11.4725997     -4.1973683      4.4506637
C      -11.6344878     -2.9128017      3.8799359
X      -11.9379490     -3.0083537      2.4029386
X      -11.6122094     -4.6722592      0.7996171
X      -11.0498681     -7.6285085      0.8201558
P      -15.6140873     -1.9722921      2.6207109
O      -15.9766663     -1.0231845      1.3832563
C      -16.5932632     -1.5443228      0.2023969
X      -16.7926357     -0.3824790     -0.7804196
X      -17.5391995      1.8701270     -0.6217350
X      -17.6951015      3.7984758      1.7009116
P      -13.4169392     -0.4317625     -2.5206074
O      -13.5841995     -0.5294309     -4.1391444
C      -12.6175774      0.0080315     -5.0611752
X      -12.9366591     -0.4023078     -6.5009028
X      -13.9346703     -2.2470927     -7.5186195
X      -15.6587638     -4.4551910     -6.4247585
P      -14.9750733      2.7157367     -7.5327737
O      -14.3280198      3.4463753     -8.7905762
C      -13.7716203      2.6885283     -9.8731027
X      -13.2529020      3.6787146    -10.9420424
X      -13.8328982      5.8708691    -11.5661003
X      -15.1791255      8.2467741    -10.1735007
P       -9.6524721      3.9497177     -9.5853560
O       -8.7988596      5.2135504    -10.0857684
C       -7.4249528      5.0855062    -10.4089253
X       -6.7441449      6.4262030    -10.5902322
X       -7.4312441      8.5282435    -11.3462282
X       -9.9187159      9.3812166    -11.1423869
X      -10.1797720     11.5412449    -11.4088661
P       -5.3222703      6.9603118     -7.0423534
O       -4.6987122      8.3977466     -6.8225253
C       -5.4899295      9.3514799     -6.0990321
X       -5.5401567      8.9883259     -4.6210043
X       -4.9612606      7.0112102     -3.4766591
X       -3.0982506      5.4822519     -4.5467673
X       -2.2986646      3.8755496     -3.3175358
P       -2.8458583     11.4480359     -3.4136831
O       -2.9090843     11.5217246     -1.8023122
C       -1.7152864     11.5945920     -0.9773883
X       -2.0085936     11.9322269      0.4977107
X       -3.6314510     13.1183497      1.6907522
X       -6.1137098     14.4542489      0.7055417
P       -1.8620784      8.3954613      2.1366744
O       -0.8564589      8.1948475      3.4411334
C       -1.2698370      8.8375188      4.6879469
X       -1.0486499      7.9440450      5.8812117
X       -0.6198398      5.6964910      6.2620710
X       -0.3236650      3.9094272      4.3819214
X        0.6564893      2.0477120      4.7875530
P        2.1738638      9.5620874      7.3485168
O        2.8322761      8.7272241      8.5090896
C        2.8968371      9.3450754      9.7976144
X        3.1908057      8.4156394     10.9719898
X        2.6573485      6.2763574     11.7591992
X        2.2298247      4.3128331     10.0860661
X        2.5722737      2.0675413     10.9887751
P        7.0309281      8.1756206     10.6759902
O        7.5664338      6.7738485     11.1863288
C        8.5663606      6.0274453     10.4951551
X        8.0207216      5.6818160      9.1312237
X        8.3442784      6.4977365      6.9617608
X       10.6892010      7.9475870      5.7616592
P        9.5796957      2.2286391      8.6902152
O        9.7964478      1.9280806      7.1283738
C       10.9644809      1.3140118      6.5570720
X       10.8512267      1.1122277      5.0460892
X       11.7163057      2.1227463      3.1164738
X       14.1385093      3.8676207      2.8472292
P       12.9568058     -2.0111402      4.8285164
O       13.7100338     -2.1773445      3.4351940
C       13.3101750     -3.1109157      2.4220140
X       14.2260731     -2.9793822      1.2170961
X       15.7444170     -1.3537440      0.4814317
X       17.0682730      0.2737148      2.0584162
X       18.8904876      1.3505605      0.8305388
   142
  Step:         1575 Total energy:    2262.1517558118453      Temperature:   0.61600000000000010     
O       -6.8224895     -2.7181599     -8.8938254
C       -7.0684860     -3.3378724    -10.1575237
X       -6.4996517     -2.4741698    -11.2686956
X       -5.8368766     -0.2314884    -11.4478894
X       -4.7266718      1.0703734     -9.4570833
X       -3.2569427      2.8885325    -10.2275033
P       -2.9858627     -3.9949825    -11.2111468
O       -1.9285862     -3.0752090    -11.9791546
C       -1.5172200     -3.2488585    -13.3537116
X       -0.4343125     -2.2249476    -13.6763303
X        0.1100262     -0.0592702    -12.9692361
X       -0.5339552      0.9612856    -10.6378194
X        1.1409560      2.5648536     -9.8345244
P        2.6532362     -4.2757312    -12.6100321
O        3.2144279     -3.8454082    -11.1758026
C        3.9397364     -2.6305876    -10.9132310
X        4.3930821     -2.6612735     -9.4596240
X        3.8866199     -4.0454486     -7.6272107
X        3.2764169     -6.5373302     -8.1871959
X        3.5189119     -8.0522469     -6.2644609
P        7.8731884     -4.1149291    -10.0716111
O        8.7520378     -4.1724026     -8.7562362
C       10.0496100     -4.7665430     -8.7352317
X       10.8340432     -4.2361094     -7.5769650
X       10.8124916     -2.3000994     -6.2809162
X        8.6167314     -0.8684236     -5.9520933
X        8.8328190      0.6211022     -4.0318049
P       10.0920386     -7.0146715     -4.9668619
O       10.0683333     -6.4031378     -3.4930719
C       11.2655709     -6.0254323     -2.8156646
X       10.9403176     -5.2797969     -1.5439815
X        9.1156200     -4.0745273     -0.7054867
X        6.1427252     -4.0975610     -1.4831956
P       11.1001252     -8.1506212      0.9361913
O       10.1702502     -7.8493060      2.1999248
C        8.9928938     -8.6068525      2.4884928
X        9.2850125     -9.7198913      3.4744741
X       11.1733729    -10.7652663      4.3945748
X       13.4480071     -9.4961160      4.7305655
X       14.7210270    -10.4324470      6.6116395
P        8.3212260     -7.8192021      6.5956409
O        9.0467058     -8.4398471      7.8781138
C        8.6378306     -9.6712786      8.5116025
X        8.1572681     -9.4446330      9.9513260
X        8.3032277     -7.7844609     11.5867511
X        8.5124538     -5.2307876     11.0575480
X        7.5904776     -3.8616896     12.8772203
P        4.5082469     -8.6452135      9.2557532
O        3.8116054     -7.7685757     10.3790822
C        2.9908867     -8.3918681     11.3567522
X        2.1350062     -7.3813243     12.1293191
X        1.9187732     -5.0393864     12.3646875
X        2.8504112     -2.7781862     10.6236838
P       -0.8100712     -7.7210732      9.7895543
O       -1.6277638     -6.3622440      9.7570833
C       -2.6787662     -6.0674114     10.6814572
X       -3.2483892     -4.6673050     10.5104369
X       -2.6365063     -2.7528872      9.3053014
X       -0.9213863     -2.0429644      6.8598403
P       -5.9150404     -5.6343724      8.0492579
O       -6.5990211     -4.3642904      7.3814969
C       -7.5827631     -3.5959445      8.0835986
X       -8.1333556     -2.4577884      7.2469194
X       -7.4349424     -1.1588593      5.4173323
X       -5.4183219     -1.6316688      3.2474175
P      -11.2309932     -4.3707009      6.0094323
O      -11.4082905     -4.1658752      4.4423912
C      -11.5975522     -2.8718828      3.8967011
X      -11.9406670     -2.9969675      2.4015589
X      -11.6297549     -4.6712809      0.7560316
X      -11.0615402     -7.6423554      0.8265201
P      -15.5818688     -1.9425886      2.6438222
O      -16.0436703     -1.0101396      1.4314512
C      -16.5380558     -1.5074247      0.1974221
X      -16.8136040     -0.3765671     -0.7754759
X      -17.6085014      1.8210568     -0.5749514
X      -17.6998785      3.7980259      1.6749837
P      -13.4295192     -0.4116079     -2.5445530
O      -13.5538131     -0.5559286     -4.1083870
C      -12.6064781     -0.0133367     -5.0227459
X      -12.9642245     -0.3831827     -6.4653040
X      -13.9321442     -2.2525406     -7.5195376
X      -15.6653321     -4.4630912     -6.4204561
P      -14.9185675      2.7269675     -7.4765001
O      -14.2727499      3.4147418     -8.7689339
C      -13.7749632      2.7147341     -9.9068628
X      -13.2648693      3.6991510    -10.9519623
X      -13.7606017      5.9217418    -11.5426286
X      -15.1830231      8.2438360    -10.1653054
P       -9.5851301      3.9565868     -9.5491324
O       -8.8111314      5.2093138    -10.1492671
C       -7.4227878      5.0728125    -10.3439516
X       -6.7370388      6.4078070    -10.6403910
X       -7.4615583      8.4946403    -11.4776841
X       -9.8862595      9.3952387    -11.0638502
X      -10.1735617     11.5289323    -11.3798556
P       -5.3280287      6.8996470     -7.0188742
O       -4.7846337      8.4042686     -6.8789436
C       -5.4938733      9.3778768     -6.1443599
X       -5.5236711      8.9218692     -4.7084164
X       -5.0216453      6.9603560     -3.5330096
X       -3.0836885      5.5156644     -4.5392066
X       -2.3030095      3.8638213     -3.3346997
P       -2.8384740     11.4912987     -3.3359639
O       -2.9569608     11.6871611     -1.7658243
C       -1.7969024     11.6449040     -0.9610425
X       -2.0323221     11.8843486      0.5203499
X       -3.5748058     13.1640462      1.7163503
X       -6.0738940     14.4680259      0.6526429
P       -1.9608369      8.2174640      2.1388608
O       -1.0674759      8.1751853      3.3914668
C       -1.4149028      8.7126032      4.6593998
X       -0.9693421      7.9489816      5.8716825
X       -0.6669082      5.6289936      6.3872068
X       -0.3297752      3.9660139      4.3520033
X        0.7030624      2.0936473      4.7689997
P        2.1669323      9.5549453      7.2834050
O        2.8112780      8.7696327      8.5578159
C        2.9205488      9.3661244      9.8618294
X        3.2571682      8.4625214     11.0461230
X        2.7551567      6.2764070     11.7602770
X        2.2657223      4.2889435     10.0837887
X        2.5936438      2.0455224     10.9926952
P        7.0265091      8.2271300     10.6421182
O        7.5853523      6.8196349     11.1720842
C        8.5504250      6.0378143     10.4575597
X        8.0002055      5.7033798      9.0783790
X        8.3761668      6.4373917      6.8850230
X       10.7186357      7.9425546      5.7744518
P        9.5849008      2.2757785      8.6561352
O        9.7846665      1.9302263      7.1177254
C       10.9814405      1.3224786      6.6275400
X       10.8664352      1.1026630      5.1303955
X       11.7097475      2.1534034      3.2101799
X       14.1494328      3.8671878      2.8330322
P       12.9881620     -2.0443391      4.8544290
O       13.6946947     -2.1664844      3.4264299
C       13.3310755     -3.1193280      2.4194821
X       14.2664791     -2.9774517      1.2292076
X       15.7313284     -1.3179595      0.4650440
X       17.0707839      0.2679630      2.0701835
X       18.8931238      1.3618425      0.8547340
   142
  Step:         1600 Total energy:    2278.7783911292213      Temperature:   0.61600000000000066     
O       -6.7906435     -2.7107104     -8.8863710
C       -7.0555333     -3.3005946    -10.1603790
X       -6.4784148     -2.4388775    -11.2705704
X       -5.7498696     -0.2188345    -11.4584812
X       -4.7084305      1.0804719     -9.4349166
X       -3.2645623      2.9023590    -10.1850501
P       -2.9982010     -3.9399514    -11.2159535
O       -1.9408616     -3.0600486    -12.0082068
C       -1.5163778     -3.2703301    -13.3511967
X       -0.4275651     -2.2546844    -13.6654806
X        0.0780743     -0.0627942    -12.9666259
X       -0.5343418      0.9682391    -10.6351002
X        1.1328378      2.5721712     -9.8181505
P        2.6316295     -4.2558430    -12.5787559
O        3.1908124     -3.8109259    -11.1627705
C        3.9289574     -2.6235846    -10.8948591
X        4.3755885     -2.6625130     -9.4559276
X        3.8769394     -4.0438472     -7.6365241
X        3.2809564     -6.5370186     -8.1642811
X        3.5169942     -8.0366030     -6.2562812
P        7.8715903     -4.1241158    -10.0468145
O        8.7636215     -4.1088002     -8.7244632
C       10.0446043     -4.7674412     -8.6964259
X       10.8577757     -4.2448383     -7.5187767
X       10.8038905     -2.2601198     -6.2708628
X        8.6041114     -0.8793852     -5.9436321
X        8.8313604      0.6364715     -4.0302737
P       10.0921586     -6.9899058     -4.9368384
O       10.0813092     -6.4093921     -3.4563933
C       11.2791010     -6.0348029     -2.7978265
X       10.9610500     -5.2470099     -1.5494248
X        9.1187668     -4.0673882     -0.7480456
X        6.1594095     -4.0930088     -1.4859095
P       11.0571033     -8.1297462      0.9145136
O       10.1529896     -7.8435615      2.1838580
C        8.9866132     -8.6392078      2.4118005
X        9.2539120     -9.7584094      3.4302113
X       11.1531004    -10.7375594      4.3951086
X       13.4200451     -9.4981691      4.7488515
X       14.7208828    -10.4276313      6.5961141
P        8.3526159     -7.8175513      6.6208616
O        9.0257347     -8.4653944      7.9059529
C        8.6519561     -9.6865600      8.5414933
X        8.1633352     -9.4509135      9.9623488
X        8.3337653     -7.7767180     11.6000905
X        8.5046066     -5.2146178     11.0561565
X        7.6045015     -3.8475527     12.8828270
P        4.4824596     -8.6668961      9.2174694
O        3.7762324     -7.8061743     10.3651892
C        2.9918238     -8.3991878     11.3995060
X        2.1384620     -7.4066056     12.1535684
X        1.9811307     -5.0803751     12.3434317
X        2.8244633     -2.7824900     10.5979170
P       -0.8277076     -7.7416489      9.7555370
O       -1.6002829     -6.3350640      9.7730160
C       -2.6625959     -6.0701911     10.6937483
X       -3.2125233     -4.6645652     10.4800999
X       -2.5783395     -2.7268652      9.3141322
X       -0.9219075     -2.0420045      6.8249949
P       -5.9223879     -5.6186235      8.0354075
O       -6.5784036     -4.3456783      7.3645674
C       -7.5259326     -3.5734844      8.1105923
X       -8.1301661     -2.4822723      7.2462703
X       -7.3819057     -1.1703404      5.4393752
X       -5.3961253     -1.6713358      3.2487223
P      -11.1992505     -4.3906516      6.0054750
O      -11.3999488     -4.1204841      4.4427891
C      -11.5148585     -2.8437675      3.8079381
X      -11.9053035     -3.0314634      2.3639040
X      -11.6259512     -4.7117227      0.7707109
X      -11.0765544     -7.6497491      0.8300943
P      -15.5788630     -1.9191881      2.6657548
O      -16.1060388     -0.9642980      1.4853426
C      -16.4845954     -1.4816238      0.2070851
X      -16.8659449     -0.4055567     -0.7793709
X      -17.6666429      1.7763858     -0.5806549
X      -17.7071896      3.7976421      1.6482835
P      -13.4271007     -0.3873457     -2.5478672
O      -13.5592016     -0.6010588     -4.1347371
C      -12.6150857     -0.0227456     -5.0316957
X      -12.9586737     -0.4103235     -6.4328265
X      -13.9509287     -2.2650833     -7.4659722
X      -15.6715944     -4.4732079     -6.4217857
P      -14.8577143      2.7365971     -7.4306730
O      -14.2278745      3.4166493     -8.7519246
C      -13.8077757      2.7584045     -9.9525525
X      -13.1671225      3.7191949    -10.8999881
X      -13.6759809      5.9292115    -11.5468272
X      -15.1872171      8.2375365    -10.1580030
P       -9.6048139      3.9561754     -9.5327420
O       -8.8017517      5.1808056    -10.1739130
C       -7.3796811      5.0611822    -10.3408325
X       -6.7090315      6.3729894    -10.6636021
X       -7.4489774      8.4416718    -11.4739165
X       -9.8538392      9.4022292    -10.9963385
X      -10.1702457     11.5236022    -11.3513298
P       -5.3488765      6.8578358     -7.0712151
O       -4.8496434      8.3618225     -6.9818635
C       -5.4620200      9.3817239     -6.1776780
X       -5.5349717      8.9969696     -4.6914165
X       -4.9887069      7.0306923     -3.5414280
X       -3.0722010      5.5073240     -4.5489459
X       -2.3105244      3.8617296     -3.3604326
P       -2.8961443     11.4896824     -3.2877216
O       -2.9552369     11.8056834     -1.6986100
C       -1.7804623     11.5640366     -0.9049663
X       -2.1040863     11.7588056      0.5833115
X       -3.5116548     13.2625223      1.7334885
X       -6.0340785     14.4750594      0.5974780
P       -2.0960744      8.1116172      2.0370776
O       -1.1957572      8.1082497      3.4518581
C       -1.4934421      8.7266053      4.7480439
X       -0.9813289      7.8394868      5.8737586
X       -0.7012254      5.5468522      6.3425164
X       -0.3506915      4.0237953      4.3198692
X        0.7535007      2.1410880      4.7479857
P        2.2180338      9.5398183      7.2417830
O        2.6478784      8.8041707      8.6202086
C        2.9385230      9.4324654      9.8937090
X        3.3032451      8.4691822     11.0679054
X        2.8546802      6.2437280     11.7057298
X        2.3016082      4.2869680     10.0723436
X        2.6177670      2.0161964     11.0033968
P        7.0387990      8.2692250     10.5990560
O        7.6072619      6.9007641     11.1597635
C        8.4826848      6.0627749     10.4037363
X        7.9639105      5.6951230      9.0145653
X        8.3850407      6.4118884      6.8224749
X       10.7536920      7.9345454      5.7804699
P        9.5917049      2.3202158      8.6302197
O        9.7836924      1.9208352      7.1080727
C       10.9937536      1.3106583      6.6759436
X       10.8733471      1.0932740      5.1903727
X       11.7246990      2.1776279      3.3024033
X       14.1582398      3.8638623      2.8140242
P       13.0240255     -2.0980339      4.8776692
O       13.6719127     -2.1410269      3.4225514
C       13.3693337     -3.1284750      2.4392506
X       14.2892181     -2.9667503      1.2386492
X       15.7191369     -1.2889047      0.4483067
X       17.0704611      0.2560374      2.0748711
X       18.8968269      1.3730812      0.8779644
   142
  Step:         1625 Total energy:    2271.3934834749839      Temperature:   0.61600000000000021     
O       -6.7803876     -2.6996125     -8.8708614
C       -7.0631371     -3.2465991    -10.1653356
X       -6.4551565     -2.4022843    -11.2772774
X       -5.6791966     -0.2002441    -11.4713634
X       -4.6969668      1.0823806     -9.4094245
X       -3.2720490      2.9226360    -10.1479458
P       -3.0044858     -3.9200496    -11.2321600
O       -1.9581723     -2.9980025    -12.0169838
C       -1.4821919     -3.2738538    -13.3223542
X       -0.4272430     -2.2511874    -13.6706531
X        0.0402228     -0.0521365    -12.9723526
X       -0.5359577      0.9659964    -10.6253061
X        1.1260033      2.5772005     -9.8094549
P        2.6065290     -4.2484389    -12.5678262
O        3.1430591     -3.7788790    -11.1406320
C        3.9129557     -2.6015886    -10.8877160
X        4.3900659     -2.6479925     -9.4384430
X        3.9125773     -4.0501048     -7.6151450
X        3.2668062     -6.5369359     -8.1600805
X        3.5202836     -8.0254761     -6.2352773
P        7.8589230     -4.1324239    -10.0270475
O        8.7873579     -4.0730557     -8.7245691
C       10.0302635     -4.7786818     -8.6341206
X       10.8536282     -4.2459713     -7.4578126
X       10.8072310     -2.2292840     -6.2479565
X        8.5938262     -0.8897578     -5.9311145
X        8.8228493      0.6517806     -4.0312991
P       10.0752339     -6.9698920     -4.9313494
O       10.0937920     -6.3968778     -3.4468148
C       11.3223715     -6.0142532     -2.8136016
X       11.0203678     -5.2145541     -1.5303162
X        9.1435285     -4.0105436     -0.7495519
X        6.1647306     -4.0894378     -1.4913921
P       11.0350778     -8.1229794      0.8908097
O       10.0937658     -7.8665655      2.1533724
C        8.9483919     -8.6623037      2.4072749
X        9.2142356     -9.7656512      3.4133265
X       11.1122423    -10.7556550      4.3677681
X       13.3925626     -9.4883803      4.7557809
X       14.7198030    -10.4296377      6.5862354
P        8.3674396     -7.8284901      6.6354077
O        9.0668373     -8.4538669      7.9531520
C        8.5940301     -9.6671246      8.5574478
X        8.1284666     -9.4742419      9.9889447
X        8.3843524     -7.7583976     11.5784275
X        8.4945306     -5.1964750     11.0535016
X        7.6165524     -3.8370761     12.8840132
P        4.4503739     -8.6906149      9.1725016
O        3.7629740     -7.8399167     10.3503907
C        3.0714795     -8.4440403     11.4688091
X        2.1218590     -7.4571006     12.1457728
X        2.0443560     -5.1209281     12.3275836
X        2.7976346     -2.7887358     10.5688062
P       -0.8418935     -7.7279374      9.7444205
O       -1.6249738     -6.3535221      9.7276121
C       -2.6211951     -6.0384359     10.6894913
X       -3.1760740     -4.6426836     10.4638302
X       -2.4970276     -2.7072123      9.3307511
X       -0.9250880     -2.0452796      6.7914636
P       -5.9339092     -5.6341507      8.0026553
O       -6.5833342     -4.3151924      7.3672846
C       -7.5170625     -3.5500562      8.1172208
X       -8.1093954     -2.4607508      7.2708793
X       -7.3629781     -1.2077882      5.4436592
X       -5.3769778     -1.7125086      3.2482024
P      -11.1520235     -4.3874592      5.9838509
O      -11.4491011     -4.1265281      4.4428827
C      -11.4154736     -2.8431709      3.7689511
X      -11.8736108     -2.9879838      2.3285669
X      -11.6489586     -4.6853284      0.6939157
X      -11.0941670     -7.6669006      0.8335256
P      -15.6025258     -1.8941819      2.6936286
O      -16.0821729     -0.9567208      1.5052288
C      -16.5135363     -1.5425083      0.2520188
X      -16.8545126     -0.4360768     -0.7738492
X      -17.7274120      1.7603270     -0.6340164
X      -17.7177409      3.7973806      1.6209518
P      -13.4464152     -0.3604342     -2.5460912
O      -13.5706936     -0.6218945     -4.1076426
C      -12.6138127     -0.0423171     -5.0087819
X      -12.9101859     -0.4138359     -6.4466388
X      -13.9408744     -2.2744989     -7.4852997
X      -15.6874724     -4.4916083     -6.4216436
P      -14.7984308      2.7527599     -7.4238802
O      -14.2012075      3.4467866     -8.7109622
C      -13.7313841      2.7422166     -9.8864583
X      -13.1775726      3.7733726    -10.8866830
X      -13.6023324      6.0060077    -11.4887464
X      -15.1868071      8.2199082    -10.1576086
P       -9.6483352      3.9604567     -9.5195790
O       -8.7688231      5.1241093    -10.1367802
C       -7.3511728      4.9714742    -10.4120512
X       -6.6990531      6.3061285    -10.6808119
X       -7.3884889      8.4380475    -11.3534018
X       -9.8293659      9.3973425    -10.9417680
X      -10.1654728     11.5340611    -11.3242281
P       -5.3932854      6.8550195     -7.1802543
O       -4.8484832      8.3647860     -6.9632581
C       -5.4818219      9.4141394     -6.1770649
X       -5.5212654      9.0399860     -4.6897029
X       -4.8239431      7.1587115     -3.5013576
X       -3.0923486      5.4988629     -4.5811695
X       -2.3155586      3.8543718     -3.3755277
P       -2.9600947     11.5071122     -3.2483964
O       -2.9156649     11.7510777     -1.6889964
C       -1.8711318     11.3233003     -0.7990363
X       -2.1545205     11.7266252      0.6416288
X       -3.5375296     13.2716557      1.7017057
X       -5.9899975     14.4787965      0.5464802
P       -2.1761872      8.1074306      2.0389483
O       -1.3994031      7.9627005      3.3993374
C       -1.4971106      8.6590830      4.6535505
X       -1.0934583      7.8483024      5.9348695
X       -0.7411670      5.5908240      6.3860996
X       -0.3482161      3.9869448      4.2600322
X        0.7751283      2.2346260      4.7084940
P        2.2544513      9.4913672      7.2541205
O        2.5133723      8.8203315      8.6810451
C        2.9193432      9.4666025      9.8839395
X        3.2938421      8.4955667     11.0088411
X        2.9048343      6.2667115     11.6695599
X        2.3423747      4.2617205     10.0565188
X        2.6360543      2.0193683     11.0060984
P        7.0636186      8.3282133     10.5404578
O        7.6253679      6.9323826     11.1006168
C        8.4668367      6.0536012     10.3465135
X        7.8913339      5.7263616      8.9740338
X        8.3716070      6.4387174      6.7925902
X       10.7871756      7.9249780      5.7823063
P        9.5941159      2.3499661      8.6411689
O        9.7951403      1.9238408      7.1280161
C       10.9792800      1.2462937      6.7100828
X       10.9125414      1.0587171      5.2078220
X       11.7410829      2.1646213      3.3137685
X       14.1648392      3.8623671      2.7936841
P       13.0358364     -2.1224432      4.8947277
O       13.6863225     -2.1361705      3.4353297
C       13.4185275     -3.1525680      2.4696497
X       14.2789534     -2.9580941      1.2303583
X       15.7044411     -1.2734449      0.4366799
X       17.0719556      0.2474079      2.0742178
X       18.8956114      1.3835653      0.9026376
   142
  Step:         1650 Total energy:    2278.0120013379728      Temperature:   0.61599999999999944     
O       -6.7856521     -2.6729373     -8.8744511
C       -7.0785233     -3.2040257    -10.1697605
X       -6.4575955     -2.3611236    -11.2709044
X       -5.6645267     -0.1679989    -11.4718607
X       -4.6866139      1.0758265     -9.3834251
X       -3.2749550      2.9513507    -10.1135385
P       -2.9930703     -3.9220339    -11.2572851
O       -1.9753177     -2.9553041    -11.9996066
C       -1.4630283     -3.2569587    -13.3010049
X       -0.4316295     -2.2070442    -13.6846819
X        0.0376810     -0.0151438    -12.9798686
X       -0.5390693      0.9560561    -10.6076635
X        1.1213394      2.5778472     -9.8106061
P        2.5925614     -4.2395272    -12.5571834
O        3.1010159     -3.7504029    -11.1191655
C        3.9105575     -2.5947620    -10.8579534
X        4.3995902     -2.6415152     -9.4117997
X        3.9727294     -4.0777837     -7.6214368
X        3.2428131     -6.5331713     -8.1594178
X        3.5287400     -8.0145499     -6.2107813
P        7.8568508     -4.1457084    -10.0139451
O        8.8045007     -4.0628784     -8.7321404
C       10.0166045     -4.7713665     -8.5856321
X       10.8226502     -4.2213306     -7.4501276
X       10.8316234     -2.2423689     -6.2061049
X        8.5878706     -0.8906407     -5.9074720
X        8.8075392      0.6626278     -4.0389496
P       10.0447902     -6.9602394     -4.9207345
O       10.1489345     -6.3586872     -3.4384825
C       11.3486155     -5.9394652     -2.7891005
X       11.0137725     -5.1660727     -1.5466897
X        9.1473427     -4.0081994     -0.7665293
X        6.1789317     -4.0854417     -1.4953395
P       11.0257990     -8.1396575      0.8770519
O       10.0253703     -7.8802958      2.1086503
C        8.8675990     -8.6632589      2.4435390
X        9.1953405     -9.7665170      3.4520301
X       11.1227244    -10.7630384      4.3359556
X       13.3602238     -9.4760320      4.7544724
X       14.7134855    -10.4359467      6.5759042
P        8.3892372     -7.8434695      6.6640110
O        9.0490981     -8.4766384      7.9450718
C        8.5480729     -9.6672809      8.5392730
X        8.0906357     -9.4299707      9.9756208
X        8.3818726     -7.7440361     11.5928667
X        8.4915128     -5.1847023     11.0377151
X        7.6243110     -3.8251149     12.8917202
P        4.4234845     -8.7067789      9.1621298
O        3.7482086     -7.9009935     10.3342889
C        3.0716326     -8.5179527     11.4207467
X        2.2188015     -7.4660589     12.1416642
X        2.0046202     -5.1268441     12.2753683
X        2.7739708     -2.8029148     10.5423343
P       -0.8343871     -7.7274102      9.7416914
O       -1.6612187     -6.3588159      9.6471058
C       -2.6045531     -6.0127507     10.6619703
X       -3.1532629     -4.6126990     10.4786533
X       -2.4711545     -2.6793165      9.3307242
X       -0.9237473     -2.0512512      6.7573971
P       -5.9295975     -5.6400970      7.9710257
O       -6.6070880     -4.3332736      7.3949429
C       -7.5372164     -3.5577619      8.1439526
X       -8.0880274     -2.4071865      7.2934611
X       -7.3710333     -1.1993616      5.4119227
X       -5.3577240     -1.7554848      3.2451199
P      -11.1090588     -4.3752290      5.9505398
O      -11.4934731     -4.1185373      4.4197489
C      -11.3942028     -2.8519806      3.7368642
X      -11.8323161     -3.0048849      2.2833235
X      -11.6724228     -4.7237998      0.6821152
X      -11.1167447     -7.6659977      0.8357978
P      -15.5940194     -1.8802117      2.7332648
O      -16.0339339     -0.9971430      1.4703959
C      -16.5684079     -1.5190697      0.2576898
X      -16.8764114     -0.4236390     -0.7172568
X      -17.6778344      1.7382193     -0.5706800
X      -17.7311194      3.7850465      1.5803650
P      -13.4765827     -0.3392978     -2.5271693
O      -13.5568105     -0.6036023     -4.1001003
C      -12.5807274     -0.0794993     -5.0182825
X      -12.8987480     -0.4651057     -6.4571623
X      -13.9263667     -2.3117723     -7.4692298
X      -15.6996594     -4.5011881     -6.4264793
P      -14.7620763      2.7593348     -7.4105690
O      -14.1634340      3.5041745     -8.6918732
C      -13.6983646      2.7963159     -9.8420709
X      -13.1582680      3.7502813    -10.8858486
X      -13.5508856      5.9749704    -11.4977287
X      -15.1897055      8.2110572    -10.1508883
P       -9.6640385      3.9486304     -9.4864551
O       -8.7489408      5.1028766    -10.0990770
C       -7.3815238      4.8860467    -10.5156473
X       -6.6926258      6.2395344    -10.7490886
X       -7.3805131      8.4468402    -11.1749224
X       -9.8049287      9.4078793    -10.9046936
X      -10.1484004     11.5307655    -11.2922769
P       -5.4239726      6.9221964     -7.2429318
O       -4.8582571      8.3703948     -6.9299592
C       -5.5282571      9.3743422     -6.1715145
X       -5.4840121      9.0395201     -4.6972862
X       -4.6767888      7.2464744     -3.4164043
X       -3.1141265      5.4836685     -4.6196790
X       -2.3235651      3.8538410     -3.3900375
P       -2.9710178     11.5579483     -3.2539554
O       -3.0244876     11.5767455     -1.6276583
C       -1.9195756     11.1679779     -0.7670808
X       -2.0960867     11.6072303      0.6751908
X       -3.4924077     13.1929012      1.7538606
X       -5.9629580     14.4895570      0.4916808
P       -2.2795734      8.1413373      2.0771171
O       -1.4722054      7.7775489      3.4682894
C       -1.5177308      8.6696354      4.6042951
X       -1.1890683      7.8594698      5.8746641
X       -0.8114075      5.6543094      6.2204833
X       -0.3833636      4.0132483      4.2229615
X        0.8311501      2.2657361      4.6732533
P        2.1996229      9.4038367      7.2601273
O        2.4796796      8.7499541      8.7074004
C        2.8789059      9.4819377      9.8787567
X        3.2900609      8.5391558     10.9845496
X        2.8664256      6.3152872     11.5911835
X        2.3877353      4.2458538     10.0297605
X        2.6556518      2.0322164     11.0123437
P        7.0966212      8.3728893     10.4752672
O        7.6094937      6.9807477     11.0177271
C        8.4361402      6.0723037     10.3012329
X        7.8777893      5.7533322      8.9297133
X        8.3425875      6.5325834      6.7749923
X       10.8169931      7.9111152      5.7826134
P        9.5895428      2.3672175      8.6791093
O        9.8320057      1.9321175      7.1575659
C       10.9781174      1.1951342      6.7042577
X       10.9246725      1.0098992      5.1920387
X       11.7870101      2.1073797      3.3063919
X       14.1696507      3.8623515      2.7739879
P       13.0339415     -2.1164550      4.8975173
O       13.7435039     -2.1820898      3.4698899
C       13.4606780     -3.1891752      2.4912855
X       14.2583585     -2.9501914      1.2195316
X       15.6782289     -1.2590559      0.4344737
X       17.0722391      0.2378339      2.0737680
X       18.8965937      1.3957565      0.9244188
   142
  Step:         1675 Total energy:    2275.6947662544958      Temperature:   0.61600000000000055     
O       -6.7985561     -2.6240119     -8.8821273
C       -7.0927867     -3.1778709    -10.1678050
X       -6.4725539     -2.3313044    -11.2684137
X       -5.6988028     -0.1281442    -11.4400350
X       -4.6630064      1.0828921     -9.3613800
X       -3.2827738      2.9754894    -10.0693659
P       -2.9887242     -3.9269675    -11.2791173
O       -1.9474049     -2.9565128    -11.9834592
C       -1.4880136     -3.1761216    -13.3331421
X       -0.4193513     -2.1500516    -13.6668282
X        0.0575317      0.0237952    -12.9718371
X       -0.5391328      0.9434519    -10.5852298
X        1.1174978      2.5752098     -9.8171902
P        2.5889884     -4.2035244    -12.5299551
O        3.0919811     -3.7327128    -11.0984135
C        3.9056899     -2.5883563    -10.8353615
X        4.4131465     -2.6535548     -9.4042284
X        4.0152401     -4.0906481     -7.6001932
X        3.2178412     -6.5424689     -8.1384329
X        3.5399475     -7.9899199     -6.1990814
P        7.8618076     -4.1643634    -10.0194224
O        8.7661365     -4.0307008     -8.7120012
C       10.0259078     -4.7439484     -8.6309595
X       10.8305065     -4.2222678     -7.4376352
X       10.8020557     -2.2554196     -6.1771738
X        8.5930977     -0.8964712     -5.8858246
X        8.7887258      0.6856366     -4.0331192
P       10.0259031     -6.9342757     -4.8868121
O       10.1663012     -6.3320333     -3.4290337
C       11.3846337     -5.8627096     -2.8347371
X       11.0355835     -5.1492366     -1.5368826
X        9.1629109     -3.9786234     -0.7238853
X        6.1911324     -4.0793567     -1.4987322
P       10.9908422     -8.1618341      0.8825893
O        9.9816940     -7.8682229      2.0700251
C        8.8464550     -8.6650947      2.4773927
X        9.1721051     -9.7691309      3.4914898
X       11.1253085    -10.7796531      4.3199215
X       13.3468324     -9.4588009      4.7613790
X       14.6940160    -10.4380215      6.5536988
P        8.3931073     -7.8267866      6.6672273
O        9.0622208     -8.5240537      7.9485140
C        8.5224962     -9.6974786      8.5608436
X        8.0541841     -9.3879856      9.9664496
X        8.3284816     -7.7240954     11.5735510
X        8.4913766     -5.1671352     11.0283618
X        7.6374781     -3.8175202     12.8942229
P        4.4247270     -8.7434439      9.1421037
O        3.7344509     -7.8841188     10.3109489
C        3.0586289     -8.4930994     11.3994049
X        2.1857390     -7.5027111     12.1192195
X        2.0261786     -5.1705146     12.2363982
X        2.7543967     -2.8177153     10.5148238
P       -0.8126988     -7.7288536      9.7425968
O       -1.6401143     -6.3710781      9.6346781
C       -2.5936492     -5.9992706     10.6379789
X       -3.1450484     -4.5921439     10.4383105
X       -2.4904831     -2.6480330      9.2898777
X       -0.9182442     -2.0589285      6.7288306
P       -5.8938330     -5.6319097      7.9767271
O       -6.6571245     -4.3407109      7.3901965
C       -7.5273576     -3.4899328      8.1645582
X       -8.1078376     -2.3897557      7.2681468
X       -7.3319076     -1.1956521      5.4136540
X       -5.3399140     -1.7995082      3.2453898
P      -11.0831850     -4.3621432      5.9153821
O      -11.4744027     -4.0780907      4.3959533
C      -11.3834011     -2.8532956      3.7099162
X      -11.8735506     -3.0262005      2.2839903
X      -11.6863204     -4.7128746      0.6635648
X      -11.1369690     -7.6672672      0.8402898
P      -15.5204116     -1.8784203      2.7423755
O      -16.0191033     -0.9925456      1.4958876
C      -16.5808222     -1.5716538      0.3250868
X      -16.8838934     -0.5071608     -0.7311141
X      -17.6668399      1.7499196     -0.6941077
X      -17.7471568      3.7934343      1.5625612
P      -13.4913589     -0.3221074     -2.5098507
O      -13.5430739     -0.5745939     -4.1105522
C      -12.5276262     -0.1326436     -5.0118365
X      -12.9006795     -0.5016306     -6.4423118
X      -13.8894810     -2.3438488     -7.4846651
X      -15.7112819     -4.5060969     -6.4305679
P      -14.7437572      2.7712676     -7.3843253
O      -14.1191434      3.5049560     -8.6700768
C      -13.7310258      2.8205965     -9.8482578
X      -13.1119874      3.7500396    -10.8703940
X      -13.6154213      5.9300986    -11.5135224
X      -15.1832732      8.1999644    -10.1422935
P       -9.6224665      3.9277315     -9.4283127
O       -8.7475572      5.0982836    -10.0907246
C       -7.4494331      4.8959984    -10.6011109
X       -6.6962706      6.2097940    -10.8012752
X       -7.3650357      8.4456477    -11.1455888
X       -9.7937307      9.4208105    -10.8658860
X      -10.1154818     11.5335629    -11.2539730
P       -5.4507180      6.9583724     -7.2321003
O       -4.8514796      8.4476270     -7.0221267
C       -5.5583835      9.3566386     -6.1369004
X       -5.4411678      9.0292496     -4.6485031
X       -4.6363733      7.2037463     -3.4178518
X       -3.1117498      5.4690065     -4.6321045
X       -2.3350328      3.8639674     -3.4122216
P       -2.9826727     11.6065856     -3.2021470
O       -3.0778024     11.3666347     -1.6191582
C       -1.9128498     11.1493579     -0.7958564
X       -2.1034933     11.5712732      0.6512871
X       -3.5632991     13.0974032      1.6056670
X       -5.9116789     14.4884836      0.4525399
P       -2.3902671      8.0823207      2.1786737
O       -1.5871400      7.8366056      3.4934449
C       -1.4981168      8.7861723      4.5297476
X       -1.2308205      7.9325551      5.7946246
X       -0.9506231      5.6109580      6.2342129
X       -0.4073471      4.0308104      4.1673208
X        0.8900606      2.2866349      4.6360060
P        2.0690483      9.2799804      7.2610742
O        2.4993215      8.6768299      8.6611892
C        2.8759066      9.4798934      9.8082935
X        3.2661143      8.5729982     10.9957644
X        2.8323215      6.3186370     11.5730104
X        2.4315887      4.2637710      9.9823795
X        2.6839370      2.0404511     11.0338445
P        7.0987651      8.4287124     10.3947925
O        7.5868191      7.0166347     10.9880122
C        8.4395941      6.1066819     10.2754887
X        7.9071786      5.7778097      8.8873441
X        8.2973659      6.6232171      6.7306536
X       10.8501235      7.8988075      5.7826761
P        9.5953061      2.3647985      8.7047229
O        9.8735094      1.9460077      7.1873759
C       10.9875446      1.1921195      6.6918536
X       10.8973641      0.9962581      5.1786672
X       11.8508856      2.0302709      3.2992830
X       14.1742779      3.8637923      2.7573600
P       13.0445345     -2.1207723      4.8992292
O       13.8147035     -2.2402598      3.5071636
C       13.4797893     -3.2149546      2.5069988
X       14.2512055     -2.9482896      1.2231860
X       15.6351887     -1.2267652      0.4352807
X       17.0738829      0.2280352      2.0790425
X       18.9011156      1.4111158      0.9453198
   142
  Step:         1700 Total energy:    2267.8915426818116      Temperature:   0.61599999999999999     
O       -6.8204042     -2.5741430     -8.8858734
C       -7.0841695     -3.1695057    -10.1599099
X       -6.4775470     -2.3185876    -11.2633599
X       -5.7270293     -0.1047525    -11.3986807
X       -4.6418479      1.0916750     -9.3348503
X       -3.2858896      2.9999205    -10.0215434
P       -2.9990027     -3.9311600    -11.2951562
O       -1.9054324     -2.9923674    -11.9833081
C       -1.5201027     -3.0930202    -13.3568538
X       -0.4160338     -2.0972417    -13.6498275
X        0.1190512      0.0643000    -12.9457165
X       -0.5385229      0.9298694    -10.5572597
X        1.1179008      2.5711964     -9.8194078
P        2.5863196     -4.1613776    -12.5044712
O        3.1105572     -3.7336445    -11.0577848
C        3.9199572     -2.5772982    -10.8121172
X        4.4305822     -2.6761250     -9.3894098
X        3.9953589     -4.1132492     -7.5972765
X        3.1980428     -6.5426651     -8.1139561
X        3.5550945     -7.9764636     -6.1763345
P        7.8630381     -4.1750731    -10.0217689
O        8.7618055     -4.0561612     -8.7255104
C       10.0385208     -4.7145677     -8.6554792
X       10.8435754     -4.2179435     -7.4605487
X       10.8123167     -2.2862795     -6.1391239
X        8.5979698     -0.9024956     -5.8624179
X        8.7704223      0.7113517     -4.0141916
P       10.0188612     -6.9058775     -4.8599080
O       10.1463191     -6.3106428     -3.3833933
C       11.3844532     -5.8307700     -2.8217268
X       11.0557690     -5.1254151     -1.5054023
X        9.1605048     -3.9988926     -0.6978991
X        6.2123906     -4.0747296     -1.4952440
P       10.9414934     -8.1796276      0.8803942
O        9.9534064     -7.8585721      2.1181310
C        8.8357037     -8.6790511      2.4916789
X        9.1880142     -9.7666416      3.4740373
X       11.1160795    -10.7685916      4.3471653
X       13.3376151     -9.4380075      4.7621042
X       14.6765835    -10.4470603      6.5396505
P        8.3975118     -7.8125086      6.6830432
O        9.0796413     -8.5316323      7.9228557
C        8.5389282     -9.6982245      8.5693325
X        8.0347371     -9.4430931      9.9945082
X        8.2575245     -7.7104605     11.5544403
X        8.4953041     -5.1393172     11.0274835
X        7.6556348     -3.8155585     12.8947344
P        4.4194851     -8.7678986      9.1364984
O        3.7289395     -7.8793877     10.2604067
C        3.0411754     -8.4932555     11.3593471
X        2.1234179     -7.5175600     12.0907145
X        2.0275627     -5.1685521     12.2601221
X        2.7423232     -2.8363444     10.4910688
P       -0.8029834     -7.7474456      9.7334955
O       -1.5675602     -6.3521487      9.6829296
C       -2.5782769     -5.9807760     10.6230894
X       -3.1457774     -4.5903501     10.3786732
X       -2.5292237     -2.6441848      9.2338229
X       -0.9072796     -2.0703373      6.7083421
P       -5.8790918     -5.5927746      7.9950956
O       -6.6742226     -4.3509078      7.4082078
C       -7.5271910     -3.4757429      8.1394277
X       -8.0838585     -2.3894728      7.2481578
X       -7.3105211     -1.1786776      5.4057946
X       -5.3207003     -1.8452935      3.2503890
P      -11.0780734     -4.3617783      5.9064891
O      -11.4121027     -4.0736123      4.3636230
C      -11.3959360     -2.8188428      3.7065266
X      -11.8872788     -3.0157054      2.2699102
X      -11.7160695     -4.7133180      0.6526805
X      -11.1502760     -7.6750186      0.8486132
P      -15.4454406     -1.8719336      2.7392206
O      -16.0324278     -0.9786387      1.5469217
C      -16.5599284     -1.5532665      0.3305944
X      -16.9203715     -0.5018933     -0.7257845
X      -17.6204315      1.7286189     -0.6039311
X      -17.7626842      3.7882263      1.5375370
P      -13.4753406     -0.3194296     -2.5142973
O      -13.5484587     -0.5684023     -4.0825980
C      -12.5205961     -0.1770493     -4.9774586
X      -12.8741704     -0.5191073     -6.4351748
X      -13.8874717     -2.3554835     -7.4875267
X      -15.7179415     -4.5091235     -6.4317685
P      -14.7266354      2.7736076     -7.3526514
O      -14.0843656      3.4436996     -8.6436037
C      -13.7085579      2.7285469     -9.8182949
X      -13.1541480      3.7631573    -10.8381703
X      -13.6763473      5.9487424    -11.5449397
X      -15.1698170      8.1834138    -10.1305650
P       -9.5513340      3.9111686     -9.3690132
O       -8.7450253      5.0983725    -10.0763235
C       -7.4467046      4.9247315    -10.5990473
X       -6.7427627      6.2591127    -10.7968293
X       -7.3789851      8.4577037    -11.3038599
X       -9.7836307      9.4126143    -10.8233967
X      -10.0718845     11.5545153    -11.2110761
P       -5.4498103      6.9852310     -7.2000275
O       -4.9691901      8.4806148     -7.0497267
C       -5.4752666      9.4474345     -6.1313908
X       -5.4306888      8.9819321     -4.6763290
X       -4.7508736      7.1028299     -3.4334819
X       -3.0845430      5.4660393     -4.6428125
X       -2.3290380      3.8444271     -3.4156176
P       -3.0404890     11.5919386     -3.1260588
O       -2.9756919     11.2907660     -1.5779313
C       -1.7621782     11.1290776     -0.8996384
X       -2.1192229     11.4873519      0.5476791
X       -3.5249219     13.0455591      1.6723615
X       -5.8754109     14.4901407      0.4152839
P       -2.5473543      8.0078271      2.2150982
O       -1.6024807      7.9501296      3.5167099
C       -1.4302964      8.8108374      4.6581250
X       -1.2792703      7.9549964      5.8224363
X       -1.1122105      5.6206469      6.0563263
X       -0.3917067      4.0083249      4.1561299
X        0.9111432      2.3501873      4.5888700
P        1.9633514      9.1914084      7.2386581
O        2.4844133      8.5761905      8.6414634
C        2.8825933      9.3987626      9.7434198
X        3.2398913      8.5483062     10.9384930
X        2.8492807      6.3168793     11.5733073
X        2.4742066      4.2773182      9.9538989
X        2.7146841      2.0789327     11.0489352
P        7.0506679      8.4444204     10.3397039
O        7.6038732      7.0807079     10.9279212
C        8.4589599      6.1682226     10.2538992
X        7.9339938      5.8280756      8.8783462
X        8.3230004      6.6362075      6.7146016
X       10.8820120      7.8865256      5.7856928
P        9.6183488      2.3482563      8.7100309
O        9.8668170      1.9609777      7.1781275
C       10.9934928      1.2147060      6.6931314
X       10.9255647      0.9953789      5.1827175
X       11.8587672      2.0174069      3.2827471
X       14.1792998      3.8581964      2.7482034
P       13.0737257     -2.1568730      4.9198598
O       13.8496542     -2.2670814      3.5299361
C       13.4889582     -3.2164498      2.5211749
X       14.2621826     -2.9472327      1.2411473
X       15.5963485     -1.1893575      0.4512200
X       17.0819729      0.2183988      2.0899456
X       18.9019875      1.4196546      0.9689635
   142
  Step:         1725 Total energy:    2263.7038346101617      Temperature:   0.61599999999999977     
O       -6.8567432     -2.5365401     -8.8906272
C       -7.0604351     -3.1702766    -10.1542947
X       -6.4676149     -2.3058081    -11.2501172
X       -5.7093071     -0.0939225    -11.3790067
X       -4.6370863      1.0968783     -9.3030434
X       -3.2834951      3.0340762     -9.9789647
P       -3.0146717     -3.9423270    -11.3176580
O       -1.9035540     -3.0080271    -11.9818505
C       -1.5316955     -3.0492973    -13.3557720
X       -0.4182360     -2.0482393    -13.6601931
X        0.1720913      0.0924876    -12.8980930
X       -0.5367645      0.9197275    -10.5318118
X        1.1205375      2.5729135     -9.8150836
P        2.5815699     -4.1295256    -12.4858653
O        3.1215765     -3.7216418    -11.0553712
C        3.9491143     -2.5879617    -10.7959619
X        4.4398127     -2.6603617     -9.3618783
X        3.9434217     -4.0872547     -7.5641372
X        3.1735103     -6.5418841     -8.0991345
X        3.5708100     -7.9766420     -6.1420127
P        7.8525449     -4.1811937    -10.0403057
O        8.8030092     -4.1130306     -8.7424791
C       10.0772415     -4.7228305     -8.6518009
X       10.8521711     -4.2026599     -7.4780710
X       10.8103467     -2.2962047     -6.1201750
X        8.6061070     -0.8993780     -5.8285356
X        8.7484920      0.7271960     -4.0027973
P       10.0131204     -6.8719802     -4.8385624
O       10.1383471     -6.2697223     -3.3669080
C       11.3489497     -5.8713261     -2.7446998
X       11.0476616     -5.1296224     -1.4701233
X        9.1805999     -3.9918934     -0.6523853
X        6.2331826     -4.0713271     -1.4910538
P       10.8693372     -8.1719583      0.8808051
O        9.9838380     -7.8742391      2.1470209
C        8.8403097     -8.6611552      2.4654039
X        9.1634395     -9.7692808      3.4687410
X       11.1089589    -10.7378780      4.3655234
X       13.3292575     -9.4104190      4.7523835
X       14.6614341    -10.4611070      6.5307522
P        8.4017203     -7.8166615      6.6889561
O        9.0689105     -8.5306757      7.9644529
C        8.5691785     -9.7266164      8.5691678
X        8.0698220     -9.4574158      9.9866885
X        8.1888406     -7.6781610     11.5152990
X        8.5017895     -5.1316641     11.0165869
X        7.6678639     -3.8032567     12.9039221
P        4.4069402     -8.7814971      9.1236398
O        3.7042029     -7.9008059     10.2402552
C        2.9645406     -8.5147018     11.2943676
X        2.1765803     -7.4694251     12.0725946
X        1.9679429     -5.1378201     12.2579706
X        2.7321787     -2.8643427     10.4707941
P       -0.8238755     -7.7596430      9.7153314
O       -1.5131088     -6.3079938      9.6863199
C       -2.5665991     -5.9770338     10.5974979
X       -3.1458296     -4.5841287     10.3833496
X       -2.5702065     -2.6497091      9.1866091
X       -0.8915519     -2.0824008      6.6835653
P       -5.9007883     -5.5783823      8.0092295
O       -6.6380063     -4.3136481      7.3762408
C       -7.5424076     -3.5016726      8.1309872
X       -8.0714213     -2.3815251      7.2447223
X       -7.3025748     -1.1696911      5.3698282
X       -5.3020214     -1.8924303      3.2535779
P      -11.0870800     -4.3519685      5.8954243
O      -11.3265972     -4.1058159      4.3400030
C      -11.4174416     -2.8198498      3.6888953
X      -11.8219092     -2.9833433      2.2200443
X      -11.7399436     -4.7439544      0.6886987
X      -11.1642020     -7.6805477      0.8553417
P      -15.4343376     -1.8490910      2.7382568
O      -16.0265211     -0.9759757      1.5353213
C      -16.5324316     -1.5705976      0.3355782
X      -16.8481964     -0.5062853     -0.6807133
X      -17.6811066      1.6818263     -0.6309610
X      -17.7837162      3.7972392      1.5278710
P      -13.4600400     -0.3257474     -2.5083043
O      -13.5603830     -0.6187540     -4.0998105
C      -12.5189082     -0.1777720     -4.9851956
X      -12.8592458     -0.5378299     -6.4152898
X      -13.9243652     -2.3435217     -7.4621999
X      -15.7223120     -4.5073341     -6.4367735
P      -14.7016990      2.7303205     -7.3079909
O      -14.0802195      3.4167441     -8.6128737
C      -13.7007089      2.7345875     -9.8119509
X      -13.1279036      3.6928350    -10.8137652
X      -13.6840093      5.8624301    -11.5325177
X      -15.1603105      8.1722063    -10.1162409
P       -9.5243992      3.9056050     -9.3475207
O       -8.7490435      5.1126933    -10.0217287
C       -7.3850189      4.9719203    -10.4948808
X       -6.7443050      6.3359511    -10.7837737
X       -7.4321002      8.4578861    -11.4784587
X       -9.7798176      9.4265038    -10.7968340
X      -10.0264150     11.5608550    -11.1627675
P       -5.4754559      6.9858181     -7.1886475
O       -4.9856539      8.5285779     -7.0685196
C       -5.4538270      9.5031320     -6.1050651
X       -5.4521450      8.9982208     -4.6672801
X       -4.9122353      7.0068672     -3.6029034
X       -3.0562152      5.4639935     -4.6529418
X       -2.3101968      3.8078487     -3.4160299
P       -3.1331035     11.5350749     -3.1169443
O       -2.8868072     11.2645972     -1.5559520
C       -1.6823771     11.1173929     -0.8273107
X       -2.0663608     11.4380570      0.5747544
X       -3.5180623     12.9677858      1.5163026
X       -5.8313616     14.4846808      0.3853154
P       -2.6767760      8.0096424      2.2768158
O       -1.5591546      7.9759238      3.4753633
C       -1.5168760      8.8554366      4.6656423
X       -1.4084401      7.9578460      5.8850725
X       -1.2476701      5.5679140      6.0769148
X       -0.4036459      4.0020218      4.1010492
X        0.9567795      2.3846656      4.5591325
P        1.9426733      9.1426480      7.2206882
O        2.3705583      8.4683571      8.5826072
C        2.8161875      9.2905769      9.6464033
X        3.2510279      8.4832683     10.8491012
X        2.8903483      6.2906014     11.5890801
X        2.5105006      4.2853919      9.9391212
X        2.7450729      2.1415169     11.0504192
P        6.9676144      8.4506617     10.2814241
O        7.6257755      7.1311588     10.9229071
C        8.5305886      6.2559028     10.2341905
X        7.9559729      5.8384537      8.8867661
X        8.3719070      6.5655117      6.6994083
X       10.9154635      7.8782784      5.7835904
P        9.6331895      2.3569322      8.6805451
O        9.8467817      1.9449762      7.1488900
C       11.0188778      1.2454699      6.6893758
X       10.9889532      0.9995216      5.1859464
X       11.8229782      2.0664360      3.2706117
X       14.1803905      3.8471089      2.7401512
P       13.1104622     -2.2058642      4.9591477
O       13.8412521     -2.2682355      3.5432334
C       13.4991746     -3.2150003      2.5343799
X       14.2700555     -2.9319751      1.2546492
X       15.5856388     -1.1612250      0.4579108
X       17.0902621      0.2113769      2.1072316
X       18.8967933      1.4244521      0.9873805
   142
  Step:         1750 Total energy:    2264.9148867065351      Temperature:   0.61599999999999933     
O       -6.8974867     -2.5155956     -8.8778428
C       -7.0521512     -3.1537560    -10.1514357
X       -6.4348784     -2.2952106    -11.2436022
X       -5.6562539     -0.0879401    -11.3644252
X       -4.6324888      1.1174209     -9.2727934
X       -3.2871728      3.0600728     -9.9338961
P       -3.0225016     -3.9616016    -11.3473917
O       -1.9297528     -2.9709867    -11.9831583
C       -1.5249575     -3.0294363    -13.3559545
X       -0.4105965     -2.0412566    -13.6544831
X        0.1692608      0.0935842    -12.8854370
X       -0.5246721      0.9203969    -10.5024569
X        1.1260524      2.5834150     -9.7974236
P        2.5738064     -4.1151401    -12.4928702
O        3.1236431     -3.6776962    -11.0468344
C        3.9816251     -2.5651590    -10.7695358
X        4.4317374     -2.6533705     -9.3289854
X        3.8765798     -4.0722240     -7.5579439
X        3.1553001     -6.5400346     -8.0633897
X        3.5838242     -7.9715465     -6.1196878
P        7.8639820     -4.1928161    -10.0524406
O        8.8028138     -4.1489945     -8.7641472
C       10.1100079     -4.7427658     -8.6822860
X       10.8920315     -4.2245211     -7.4456289
X       10.8075845     -2.2570550     -6.1335772
X        8.6096833     -0.8929845     -5.7963533
X        8.7291819      0.7422884     -3.9862825
P       10.0124331     -6.8350232     -4.8312036
O       10.1092113     -6.2067023     -3.3650088
C       11.3403737     -5.9262132     -2.6944835
X       11.0281865     -5.1720045     -1.3982498
X        9.1937889     -3.9285633     -0.6032920
X        6.2541062     -4.0674530     -1.4835621
P       10.8266938     -8.1636749      0.8560859
O        9.9903934     -7.8740721      2.2001252
C        8.8152361     -8.6379287      2.4963451
X        9.1291311     -9.7581488      3.4861741
X       11.0930321    -10.6912158      4.3537189
X       13.3293086     -9.3874629      4.7504730
X       14.6427894    -10.4678607      6.5152669
P        8.4055722     -7.8387715      6.6999678
O        9.0556607     -8.5137976      7.9880273
C        8.6235052     -9.7263854      8.5777774
X        8.0587529     -9.4475754      9.9491685
X        8.1898489     -7.6821355     11.5016173
X        8.5034471     -5.1222292     11.0107345
X        7.6824718     -3.7889385     12.9076157
P        4.4112596     -8.7998379      9.0910318
O        3.7091983     -7.8947148     10.2091352
C        3.0011101     -8.4703948     11.3137820
X        2.1209510     -7.4951517     12.0638532
X        1.9842471     -5.1691952     12.2801993
X        2.7270865     -2.8869497     10.4473935
P       -0.8473837     -7.7179579      9.7187730
O       -1.5534843     -6.3030279      9.6306649
C       -2.5503646     -5.9645802     10.5912293
X       -3.1345578     -4.5701417     10.3901755
X       -2.5489289     -2.6628683      9.1594366
X       -0.8746647     -2.0944459      6.6613063
P       -5.9446539     -5.5826850      8.0103771
O       -6.5702742     -4.2687182      7.3576582
C       -7.5288940     -3.4840807      8.0855651
X       -8.1045559     -2.3762956      7.2307514
X       -7.2845565     -1.2162231      5.3668350
X       -5.2845784     -1.9376762      3.2578867
P      -11.0920959     -4.3196618      5.8726435
O      -11.2582016     -4.1285210      4.2978477
C      -11.3198103     -2.8271726      3.6717293
X      -11.8018332     -2.9590969      2.2445275
X      -11.7034108     -4.7022556      0.6484217
X      -11.1767630     -7.6935713      0.8642200
P      -15.4554279     -1.8258504      2.7486149
O      -15.9805358     -0.9613567      1.5281694
C      -16.4596471     -1.5765701      0.3324297
X      -16.8073907     -0.4961611     -0.6858787
X      -17.7272175      1.6645750     -0.6169457
X      -17.8075989      3.8078550      1.5209227
P      -13.4432977     -0.3486596     -2.5204415
O      -13.5338774     -0.6546605     -4.0631152
C      -12.5243542     -0.1888420     -4.9659624
X      -12.8546382     -0.5179768     -6.3967738
X      -13.9285219     -2.3189021     -7.4869857
X      -15.7301254     -4.5067333     -6.4394947
P      -14.6721573      2.6733553     -7.2738000
O      -14.0978010      3.4077222     -8.5713368
C      -13.6480543      2.7052809     -9.7564364
X      -13.0999508      3.6422376    -10.7901221
X      -13.6641102      5.8214177    -11.4204671
X      -15.1448218      8.1543850    -10.1062470
P       -9.5426165      3.9106445     -9.3576042
O       -8.7287392      5.1552376     -9.9439944
C       -7.3416538      5.0518645    -10.3643139
X       -6.7021634      6.3601192    -10.7665879
X       -7.4708353      8.4177970    -11.5439502
X       -9.7803334      9.4484720    -10.7841054
X       -9.9935588     11.5768245    -11.1201985
P       -5.5054257      7.0534553     -7.1979616
O       -4.9351932      8.5197397     -7.0044925
C       -5.4952794      9.5100668     -6.1318314
X       -5.5456109      8.9861420     -4.6866956
X       -4.9704773      6.9413008     -3.7071660
X       -3.0305582      5.4223221     -4.6588381
X       -2.2920701      3.7927652     -3.4291709
P       -3.1648065     11.4844326     -3.1134776
O       -2.9101056     11.2141083     -1.5620697
C       -1.6710132     10.9707599     -0.8341403
X       -1.9248509     11.4286400      0.6209230
X       -3.4813625     12.9462903      1.5321858
X       -5.8005253     14.4876044      0.3511228
P       -2.6955976      8.0984107      2.3831305
O       -1.6228351      7.9421025      3.4733379
C       -1.7238942      8.7489574      4.6213597
X       -1.5568386      7.8234612      5.8302098
X       -1.2466093      5.5561519      6.0360657
X       -0.4507690      4.0359868      4.0625323
X        1.0173048      2.4081923      4.5426381
P        1.9342756      9.1026441      7.1574236
O        2.2575057      8.3662937      8.5348096
C        2.7508170      9.2159780      9.5796454
X        3.2040784      8.4135557     10.8011207
X        2.9492367      6.2446123     11.6202417
X        2.5351698      4.3248459      9.9170017
X        2.7795313      2.1750964     11.0598233
P        6.9247977      8.4336375     10.2184625
O        7.6345788      7.1983652     10.9163814
C        8.5458671      6.3112758     10.2544995
X        8.0289611      5.8587374      8.8922747
X        8.4513681      6.4587935      6.6732995
X       10.9470223      7.8720293      5.7795146
P        9.6371839      2.3923078      8.6291526
O        9.8703077      1.9024003      7.1291977
C       11.0809789      1.2694698      6.6930499
X       11.0036664      1.0153480      5.1952728
X       11.8048314      2.0732019      3.2569644
X       14.1816091      3.8392978      2.7339059
P       13.1390062     -2.2289634      5.0057330
O       13.8357981     -2.2747307      3.5668569
C       13.5139053     -3.2193681      2.5426572
X       14.2642537     -2.9073713      1.2530410
X       15.6024141     -1.1500997      0.4677253
X       17.0968631      0.2074840      2.1357124
X       18.8922440      1.4306858      0.9994958
   142
  Step:         1775 Total energy:    2272.6642963550435      Temperature:   0.61600000000000077     
O       -6.9357122     -2.5100319     -8.8693320
C       -7.0624428     -3.1269112    -10.1541371
X       -6.4142680     -2.2735705    -11.2303987
X       -5.6002163     -0.0798879    -11.3493382
X       -4.6296927      1.1463076     -9.2461761
X       -3.2963120      3.0834377     -9.8891683
P       -3.0148260     -3.9661613    -11.3894661
O       -1.9693729     -2.9459755    -12.0017511
C       -1.5077492     -3.0621261    -13.3556637
X       -0.4182292     -2.0493988    -13.6323723
X        0.1223339      0.0885444    -12.8816016
X       -0.5052719      0.9303562    -10.4770840
X        1.1324394      2.6043708     -9.7683320
P        2.5797144     -4.1006988    -12.4932986
O        3.1046902     -3.6302995    -11.0709011
C        3.9595999     -2.5206204    -10.7763234
X        4.4366462     -2.6583427     -9.3245230
X        3.8337825     -4.0545210     -7.5360615
X        3.1330350     -6.5381964     -8.0208424
X        3.5939110     -7.9654740     -6.1025429
P        7.8868444     -4.2099639    -10.0558878
O        8.8220937     -4.1686179     -8.7516506
C       10.1259600     -4.7613128     -8.6464271
X       10.8976873     -4.1921515     -7.4679484
X       10.8140128     -2.2487840     -6.1715668
X        8.6031460     -0.8906747     -5.7810321
X        8.7129210      0.7623739     -3.9587829
P       10.0087989     -6.8004751     -4.8240458
O       10.0725293     -6.1434398     -3.3732215
C       11.2905039     -5.9422960     -2.6345266
X       10.9981677     -5.1601164     -1.3609829
X        9.1814208     -3.9270784     -0.5883498
X        6.2788037     -4.0594977     -1.4746310
P       10.7869917     -8.1852430      0.8677013
O        9.9603510     -7.8877787      2.1874909
C        8.7846917     -8.5798953      2.5742441
X        9.1172830     -9.7232327      3.5008249
X       11.0778738    -10.6761589      4.3359000
X       13.3270916     -9.3654158      4.7474669
X       14.6229234    -10.4702567      6.4966110
P        8.3831442     -7.8456698      6.7101643
O        9.1124948     -8.4971936      7.9665127
C        8.6072332     -9.7041343      8.5676808
X        8.0496542     -9.4342685      9.9553606
X        8.2282743     -7.6751252     11.4968788
X        8.4958280     -5.1133758     11.0138352
X        7.6995058     -3.7772465     12.8971676
P        4.4090516     -8.8025456      9.0580840
O        3.7080519     -7.9003801     10.1807321
C        3.0368276     -8.4792758     11.3135508
X        2.1157343     -7.4995773     12.0563261
X        1.9872384     -5.1680891     12.2617056
X        2.7230944     -2.9122871     10.4252502
P       -0.8699675     -7.6755494      9.7065017
O       -1.6608459     -6.2949135      9.5813296
C       -2.5628340     -5.9367180     10.6167797
X       -3.1359007     -4.5640321     10.3587200
X       -2.4850038     -2.6514554      9.1730095
X       -0.8585337     -2.1064597      6.6367490
P       -5.9788385     -5.5713688      8.0074447
O       -6.5714033     -4.2446615      7.3725184
C       -7.5502280     -3.4924719      8.0732378
X       -8.0830429     -2.3849673      7.2034327
X       -7.3053850     -1.1990661      5.3379197
X       -5.2682787     -1.9829892      3.2578942
P      -11.0951002     -4.2870005      5.8373487
O      -11.2164130     -4.0979773      4.2705734
C      -11.2519515     -2.8301153      3.6341446
X      -11.7726511     -3.0286699      2.2435497
X      -11.6278934     -4.7475735      0.6601397
X      -11.1933238     -7.6893752      0.8700445
P      -15.4624634     -1.8131849      2.7743331
O      -15.9497530     -0.9103513      1.5295089
C      -16.3766094     -1.5159912      0.2996767
X      -16.8318526     -0.4821358     -0.7330485
X      -17.7056491      1.6675018     -0.5434713
X      -17.8365998      3.8151607      1.5081665
P      -13.4175330     -0.3730739     -2.4991585
O      -13.5207267     -0.6831379     -4.0677101
C      -12.5062681     -0.2013934     -4.9705571
X      -12.8512978     -0.5566438     -6.3958689
X      -13.9464278     -2.3345109     -7.4603854
X      -15.7366355     -4.4983749     -6.4473948
P      -14.6689356      2.6536946     -7.2542316
O      -14.1042981      3.3599152     -8.5582272
C      -13.5719369      2.6008132     -9.6529598
X      -13.0941588      3.6159879    -10.7142233
X      -13.5968348      5.8341082    -11.3853876
X      -15.1302050      8.1381398    -10.0959849
P       -9.5540426      3.9387808     -9.3808003
O       -8.7103075      5.2052541     -9.8836324
C       -7.3505240      5.0413142    -10.2791213
X       -6.6950509      6.3366132    -10.7216214
X       -7.4739395      8.4249152    -11.4948081
X       -9.7829834      9.4588314    -10.7843936
X       -9.9968215     11.6296675    -11.1174955
P       -5.5297178      7.1404743     -7.1979094
O       -4.8569794      8.5750192     -6.9455512
C       -5.5759664      9.4724593     -6.1046274
X       -5.6080562      8.8960577     -4.6900146
X       -4.8924947      6.9107239     -3.6812827
X       -3.0321255      5.3753424     -4.6909816
X       -2.2683706      3.7749764     -3.4329355
P       -3.1348267     11.4280502     -3.0925903
O       -2.9812716     11.1264679     -1.5280371
C       -1.7398911     10.8723164     -0.8384426
X       -1.9105902     11.4650522      0.5556280
X       -3.3841114     13.0454547      1.5078295
X       -5.7633300     14.4805218      0.3214048
P       -2.7284521      8.2265356      2.3816665
O       -1.6581471      7.8443627      3.5713306
C       -1.9188316      8.6639998      4.6751358
X       -1.6108282      7.7527690      5.8572025
X       -1.2587393      5.4832937      6.1150634
X       -0.4369156      3.9959160      4.0280909
X        1.0169761      2.4983839      4.5054634
P        1.8463846      9.0121604      7.0449510
O        2.2157734      8.3455299      8.4574330
C        2.6550245      9.1426281      9.5698019
X        3.1405233      8.3993912     10.8000184
X        2.9679843      6.2492652     11.6713772
X        2.5506930      4.3544858      9.8957964
X        2.8121254      2.1987324     11.0559979
P        6.9122119      8.4261142     10.1320050
O        7.6321033      7.2112757     10.8992673
C        8.5773347      6.3311380     10.2637698
X        8.0707304      5.8792029      8.8961221
X        8.5382728      6.3884472      6.6659502
X       10.9787765      7.8685942      5.7685538
P        9.6491070      2.4188432      8.5997892
O        9.9034489      1.9084077      7.1095805
C       11.1210823      1.2909724      6.6795040
X       11.0201864      1.0060401      5.1918050
X       11.8317059      2.0305458      3.2489907
X       14.1773615      3.8336712      2.7266128
P       13.1457885     -2.2053510      5.0323664
O       13.8595647     -2.2974239      3.6035988
C       13.5108270     -3.2137418      2.5510207
X       14.2449622     -2.8913163      1.2518274
X       15.6132700     -1.1473559      0.4911604
X       17.1054353      0.2100132      2.1678676
X       18.8822014      1.4369856      1.0076061
   142
  Step:         1800 Total energy:    2251.0021459286363      Temperature:   0.61600000000000088     
O       -6.9578146     -2.5118839     -8.8690441
C       -7.0797898     -3.1117600    -10.1594744
X       -6.4217728     -2.2454850    -11.2227846
X       -5.5852086     -0.0579945    -11.3344843
X       -4.6313141      1.1617926     -9.2196379
X       -3.2960193      3.1171806     -9.8544346
P       -3.0218483     -3.9638502    -11.4218548
O       -1.9586355     -2.9534422    -12.0314044
C       -1.4837059     -3.1166793    -13.3742334
X       -0.4230148     -2.0622939    -13.6484990
X        0.0733439      0.0838687    -12.8663615
X       -0.4849025      0.9467216    -10.4568050
X        1.1426094      2.6313668     -9.7361010
P        2.5938062     -4.0797675    -12.5055646
O        3.0919105     -3.6149571    -11.0594948
C        3.9525420     -2.5103496    -10.7749019
X        4.4345120     -2.6590736     -9.3443203
X        3.8547398     -4.0508603     -7.5607137
X        3.1056372     -6.5222281     -7.9945927
X        3.6070694     -7.9706441     -6.0757936
P        7.9117296     -4.2266887    -10.0419575
O        8.8206019     -4.1626518     -8.7360623
C       10.1205223     -4.7582454     -8.6486672
X       10.9004090     -4.1734524     -7.4924165
X       10.8301809     -2.2192244     -6.2044269
X        8.5875930     -0.8762251     -5.7670225
X        8.7038842      0.7655898     -3.9433055
P       10.0069447     -6.7610885     -4.8178876
O       10.0390746     -6.0996887     -3.3712361
C       11.2582766     -5.9019548     -2.6560620
X       11.0085503     -5.1630557     -1.3692206
X        9.2227724     -3.8994391     -0.5055888
X        6.2909393     -4.0503338     -1.4712871
P       10.7541773     -8.2375912      0.8882546
O        9.9252965     -7.8353996      2.1960018
C        8.7342910     -8.5485437      2.5843869
X        9.1068155     -9.6950046      3.5294632
X       11.0984129    -10.6629923      4.3033472
X       13.3135197     -9.3461819      4.7337810
X       14.6129095    -10.4742865      6.4827967
P        8.3575400     -7.8310909      6.7307647
O        9.1389874     -8.5247655      7.9266972
C        8.5885187     -9.6912270      8.5549272
X        8.0776525     -9.3938416      9.9589102
X        8.2567405     -7.6744127     11.5355597
X        8.4924639     -5.1135634     11.0037179
X        7.7127792     -3.7602690     12.8897880
P        4.4030737     -8.7879293      9.0388582
O        3.6809621     -7.9216158     10.1654159
C        3.0027600     -8.5154241     11.2592089
X        2.1808490     -7.4828111     12.0286201
X        1.9489319     -5.1559141     12.2426546
X        2.7248598     -2.9355931     10.4008283
P       -0.8920420     -7.6669567      9.6600513
O       -1.6996521     -6.3069917      9.5970208
C       -2.6319379     -5.9256483     10.6062669
X       -3.1486685     -4.5198175     10.3646630
X       -2.4383657     -2.6268076      9.1736104
X       -0.8392672     -2.1189066      6.6101848
P       -5.9802155     -5.5592367      8.0150863
O       -6.6338502     -4.2646674      7.3554523
C       -7.5761735     -3.4713906      8.0823902
X       -8.0788121     -2.3551049      7.1685152
X       -7.2717068     -1.1969695      5.3058071
X       -5.2555242     -2.0247816      3.2543844
P      -11.0850050     -4.2594337      5.8230558
O      -11.2088571     -4.0959225      4.2489461
C      -11.2556934     -2.8247004      3.6273527
X      -11.7676204     -2.9995571      2.1990705
X      -11.6218954     -4.7316449      0.5893111
X      -11.2032767     -7.7008352      0.8726920
P      -15.4328074     -1.7924913      2.7633446
O      -15.9444618     -0.9040411      1.5309201
C      -16.3646685     -1.5164626      0.3265349
X      -16.7705119     -0.5063259     -0.7306286
X      -17.7313093      1.6773604     -0.6638286
X      -17.8635196      3.8317124      1.5035437
P      -13.3968456     -0.3950663     -2.4845270
O      -13.4987024     -0.6737677     -4.0528526
C      -12.4724399     -0.2503962     -4.9470155
X      -12.8244610     -0.5791045     -6.3964039
X      -13.9074643     -2.3515905     -7.4996975
X      -15.7508301     -4.5025981     -6.4537461
P      -14.6944688      2.6530331     -7.2279044
O      -14.0943036      3.3458823     -8.5495066
C      -13.5771064      2.6452530     -9.6590473
X      -13.0235561      3.6019884    -10.6749912
X      -13.5873646      5.7619008    -11.3242238
X      -15.1120732      8.1212895    -10.0885248
P       -9.5340765      3.9655310     -9.3752807
O       -8.7333076      5.2303807     -9.8921085
C       -7.3957396      5.0141317    -10.2851588
X       -6.7087064      6.3230125    -10.6649619
X       -7.4566956      8.4504788    -11.3543959
X       -9.7868848      9.5060886    -10.8061478
X      -10.0214350     11.6563905    -11.1431680
P       -5.5096404      7.2060118     -7.1658496
O       -4.8884309      8.6376574     -6.9724126
C       -5.6128009      9.4229712     -6.0268191
X       -5.5785307      8.8791743     -4.6087795
X       -4.8126675      6.9059178     -3.5811183
X       -3.0408317      5.3176163     -4.7429227
X       -2.2374073      3.7542199     -3.4336620
P       -3.1107803     11.3310356     -3.0757254
O       -3.0496115     11.0441616     -1.5241866
C       -1.8203552     10.9250374     -0.8532650
X       -1.9624977     11.4719187      0.5172920
X       -3.2143165     13.2316376      1.3771828
X       -5.7220556     14.4645459      0.2963789
P       -2.7462376      8.2848773      2.3355274
O       -1.8390574      7.9571890      3.5457239
C       -1.9308706      8.5846026      4.8301730
X       -1.6642121      7.6325610      6.0059836
X       -1.2335228      5.3604994      6.0826380
X       -0.4606466      4.0032341      4.0101551
X        1.0502395      2.5446267      4.4715314
P        1.7399367      8.9005969      6.9468312
O        2.2345625      8.3470569      8.3775313
C        2.5458305      9.1618464      9.5387749
X        3.1042430      8.4249737     10.7699665
X        2.9229739      6.2604060     11.6463653
X        2.5649542      4.3609948      9.9019257
X        2.8402745      2.2248796     11.0244900
P        6.9078263      8.4064480     10.0504823
O        7.6206760      7.2181571     10.8292967
C        8.5912850      6.3524751     10.2409767
X        8.0728192      5.8562617      8.9013827
X        8.5654577      6.4009201      6.6753421
X       11.0171966      7.8680114      5.7481010
P        9.6822154      2.4160660      8.6074274
O        9.9244811      1.9866283      7.0870768
C       11.1088543      1.2916119      6.6671906
X       11.0541178      0.9863620      5.1754687
X       11.8710987      1.9646120      3.2105101
X       14.1729321      3.8292680      2.7162683
P       13.1488037     -2.1681779      5.0317593
O       13.9022492     -2.3156794      3.6276601
C       13.4754925     -3.1875119      2.5680282
X       14.2292537     -2.8834157      1.2816762
X       15.6091242     -1.1430680      0.5341948
X       17.1166788      0.2142622      2.1948682
X       18.8711995      1.4422862      1.0114355
   142
  Step:         1825 Total energy:    2257.1031434723054      Temperature:   0.61599999999999988     
O       -6.9603374     -2.5206237     -8.8639433
C       -7.0949720     -3.0978415    -10.1686107
X       -6.4355368     -2.2243144    -11.2289200
X       -5.6293273     -0.0251392    -11.2961498
X       -4.6245195      1.1731697     -9.1916559
X       -3.2944326      3.1439281     -9.8177667
P       -3.0466492     -3.9621786    -11.4328627
O       -1.9288280     -3.0105733    -12.0643932
C       -1.4573846     -3.1378671    -13.3996520
X       -0.4100839     -2.0792039    -13.6934040
X        0.0507249      0.0611985    -12.8427269
X       -0.4664550      0.9656198    -10.4308494
X        1.1546865      2.6547693     -9.7013836
P        2.6176924     -4.0548420    -12.5142954
O        3.0843611     -3.6370941    -11.0524172
C        3.9697431     -2.5463738    -10.7935339
X        4.4601987     -2.6429755     -9.3623183
X        3.9189296     -4.0528031     -7.5605409
X        3.0798184     -6.5193045     -7.9613668
X        3.6185085     -7.9729574     -6.0528514
P        7.9063610     -4.2361096    -10.0189972
O        8.8118264     -4.1460134     -8.7160737
C       10.1275894     -4.7349902     -8.6644660
X       10.9124852     -4.1541403     -7.4722391
X       10.7746290     -2.1672225     -6.2288908
X        8.5766514     -0.8655891     -5.7562389
X        8.7043951      0.7517879     -3.9282679
P        9.9969553     -6.7250170     -4.8203484
O       10.0266213     -6.0724886     -3.3660385
C       11.2695758     -5.8325506     -2.6885722
X       10.9944265     -5.1597095     -1.3565746
X        9.1929563     -3.9369295     -0.5120280
X        6.3142198     -4.0428749     -1.4585028
P       10.7176689     -8.2660285      0.9238082
O        9.8822160     -7.8275625      2.1912193
C        8.7230971     -8.5387964      2.5943742
X        9.0848435     -9.6739428      3.5111086
X       11.0796606    -10.6498319      4.2667559
X       13.3060016     -9.3368760      4.7269539
X       14.6061684    -10.4766129      6.4687468
P        8.3432537     -7.8092096      6.7543645
O        9.1165983     -8.5345925      7.9377523
C        8.6406183     -9.7001473      8.5955391
X        8.0672081     -9.3746314      9.9653199
X        8.2923201     -7.6766991     11.5560647
X        8.4927715     -5.1195028     10.9948554
X        7.7265742     -3.7455978     12.8851670
P        4.4162132     -8.7802543      9.0248954
O        3.6726376     -7.9003729     10.1268953
C        3.0005799     -8.4884462     11.2434294
X        2.0922052     -7.5346436     11.9915870
X        1.9875384     -5.2042910     12.2426529
X        2.7341526     -2.9546641     10.3747184
P       -0.8974025     -7.6920016      9.6253331
O       -1.6756621     -6.2898173      9.6481327
C       -2.6929560     -5.9120870     10.5986602
X       -3.1751699     -4.4793045     10.3842110
X       -2.4248581     -2.6197455      9.1550606
X       -0.8159070     -2.1365764      6.5894163
P       -5.9715282     -5.5457280      8.0311617
O       -6.7054686     -4.3118449      7.3492342
C       -7.5685835     -3.4228033      8.0656151
X       -8.1073396     -2.3078060      7.1767971
X       -7.2421789     -1.1900544      5.3156963
X       -5.2381747     -2.0700581      3.2466667
P      -11.0704736     -4.2458405      5.8266436
O      -11.2337126     -4.0940110      4.2343660
C      -11.3169057     -2.8296473      3.5667871
X      -11.7602405     -2.9642889      2.1190609
X      -11.6617461     -4.7348146      0.5901269
X      -11.2091627     -7.7118257      0.8763337
P      -15.3685578     -1.7782891      2.7451853
O      -15.9460906     -0.9183149      1.5399242
C      -16.4289028     -1.5069880      0.3266382
X      -16.7572367     -0.4281559     -0.6706020
X      -17.6535198      1.7169789     -0.5920488
X      -17.8864615      3.8215336      1.4800052
P      -13.3628091     -0.4159288     -2.4669854
O      -13.4785865     -0.6557036     -4.0407792
C      -12.4433645     -0.3075141     -4.9451682
X      -12.8071658     -0.6225379     -6.3949732
X      -13.8786727     -2.3914859     -7.4702402
X      -15.7616395     -4.5136588     -6.4579451
P      -14.7139366      2.6539804     -7.2165908
O      -14.0921053      3.3754232     -8.5117832
C      -13.5537028      2.6409007     -9.6104668
X      -13.0284369      3.5874435    -10.6882516
X      -13.5636189      5.7624904    -11.3494293
X      -15.0919115      8.1018966    -10.0753092
P       -9.5008041      3.9634481     -9.3097645
O       -8.7611599      5.2242654     -9.9475126
C       -7.4035965      5.0376018    -10.3313210
X       -6.7193848      6.3474489    -10.6198448
X       -7.3957493      8.5043449    -11.1935090
X       -9.7989535      9.5562442    -10.8347727
X      -10.0443643     11.6700373    -11.1679284
P       -5.4588022      7.1885860     -7.1203678
O       -5.0192790      8.7177663     -6.9585224
C       -5.6232884      9.5210276     -5.9314532
X       -5.5422528      8.8446299     -4.5687679
X       -4.7308316      6.8751255     -3.5945959
X       -3.0521716      5.2506947     -4.7607710
X       -2.2047513      3.7392138     -3.4494067
P       -3.1108418     11.2119325     -3.0908714
O       -3.0754353     11.0285089     -1.5030966
C       -1.8091299     10.8829231     -0.8829810
X       -1.9090873     11.5505474      0.4980097
X       -3.0877393     13.4193674      1.3810128
X       -5.6926896     14.4628840      0.2670660
P       -2.8033030      8.2901478      2.2911953
O       -1.8756026      7.9965143      3.6518008
C       -2.0540008      8.5752315      5.0077585
X       -1.7478156      7.5600534      6.0790705
X       -1.2873599      5.2015119      6.2034831
X       -0.4928360      4.0202345      3.9813502
X        1.1152134      2.5446746      4.4377386
P        1.6934287      8.7975418      6.9154648
O        2.2694022      8.3241256      8.3395661
C        2.5137220      9.2214969      9.4365987
X        3.0554346      8.4801728     10.6635686
X        2.8760068      6.3293580     11.6027149
X        2.5688180      4.3739027      9.9100795
X        2.8708258      2.2127712     10.9945928
P        6.8799538      8.3914710      9.9672742
O        7.6045357      7.2124413     10.7893864
C        8.5599751      6.2931227     10.2329811
X        8.0848732      5.8472260      8.8660489
X        8.5736158      6.4805731      6.6701458
X       11.0569385      7.8623910      5.7274307
P        9.7291571      2.3995098      8.6306908
O        9.9747832      2.0592029      7.0870127
C       11.0982090      1.2848346      6.6441156
X       11.0427417      0.9802710      5.1499414
X       11.8916834      1.9287899      3.1819070
X       14.1719581      3.8216686      2.7079311
P       13.1719794     -2.1587800      5.0339536
O       13.9269074     -2.3142996      3.6443757
C       13.4263113     -3.1454808      2.6005394
X       14.2182060     -2.8829862      1.3352090
X       15.6017767     -1.1447925      0.5854989
X       17.1275195      0.2137606      2.2262524
X       18.8648477      1.4458816      1.0152381
   142
  Step:         1850 Total energy:    2234.9528629636861      Temperature:   0.61600000000000021     
O       -6.9454936     -2.5397475     -8.8793761
C       -7.1000383     -3.0950821    -10.1879875
X       -6.4549562     -2.1921024    -11.2263827
X       -5.6823794      0.0212099    -11.2588649
X       -4.6091464      1.1888858     -9.1678932
X       -3.2973307      3.1570660     -9.7819679
P       -3.0670992     -3.9716279    -11.4417431
O       -1.9224639     -3.0669654    -12.1038723
C       -1.4469023     -3.1598442    -13.4442474
X       -0.4038560     -2.0796933    -13.6986750
X        0.0712804      0.0460715    -12.8034964
X       -0.4509452      0.9804386    -10.4094237
X        1.1666633      2.6715656     -9.6735974
P        2.6451345     -4.0460329    -12.5341069
O        3.1006014     -3.6470705    -11.0655520
C        4.0074982     -2.5731825    -10.7996633
X        4.4866330     -2.6711717     -9.3626774
X        3.9660305     -4.0902983     -7.5725338
X        3.0662675     -6.5163634     -7.9209332
X        3.6255947     -7.9683968     -6.0407937
P        7.8801050     -4.2413046     -9.9962481
O        8.8358426     -4.1420774     -8.7101984
C       10.1314323     -4.7057650     -8.6386151
X       10.9065093     -4.1193393     -7.4842611
X       10.8084664     -2.1398891     -6.2041096
X        8.5471271     -0.8578148     -5.7636956
X        8.7146119      0.7346150     -3.9040441
P        9.9751287     -6.6964083     -4.8280689
O       10.0613678     -6.0578312     -3.3778886
C       11.2931799     -5.8354767     -2.6973859
X       11.0190430     -5.1660516     -1.3557443
X        9.2269347     -3.9354858     -0.4593915
X        6.3261071     -4.0379846     -1.4484659
P       10.6987837     -8.2546659      0.9209355
O        9.8425193     -7.8398607      2.2155873
C        8.6580592     -8.5317020      2.5886441
X        9.0469853     -9.6732556      3.4946214
X       11.0627840    -10.6252442      4.2462075
X       13.2998064     -9.3384398      4.7206021
X       14.6003075    -10.4769222      6.4484904
P        8.3371494     -7.8029923      6.7662739
O        9.1116813     -8.5000179      7.9909672
C        8.6522971     -9.6964464      8.6212607
X        8.0732200     -9.4084181     10.0067428
X        8.2874646     -7.6624301     11.5600089
X        8.4950508     -5.1205072     10.9929358
X        7.7452199     -3.7400650     12.8682486
P        4.4311395     -8.7686662      9.0118778
O        3.6644200     -7.8854869     10.1090805
C        2.9404402     -8.5319917     11.1817952
X        2.0687747     -7.5516503     11.9560250
X        1.9852248     -5.2234217     12.1839152
X        2.7491858     -2.9807018     10.3513270
P       -0.9242636     -7.6965898      9.6088790
O       -1.6535680     -6.2695956      9.6794851
C       -2.6688208     -5.8970840     10.6189020
X       -3.1814114     -4.4867177     10.3523370
X       -2.4382972     -2.6287849      9.1180294
X       -0.7913551     -2.1601071      6.5722915
P       -5.9821385     -5.5384817      8.0386601
O       -6.7496390     -4.2987398      7.3672500
C       -7.5934746     -3.4022074      8.0888189
X       -8.0622769     -2.2855705      7.1798119
X       -7.2252012     -1.1856117      5.2796236
X       -5.2222785     -2.1166026      3.2373546
P      -11.0732390     -4.2406555      5.7967624
O      -11.2789153     -4.0476966      4.2314563
C      -11.3014113     -2.7926286      3.5289341
X      -11.7636932     -3.0018212      2.0876152
X      -11.6997730     -4.7686021      0.5659343
X      -11.2136691     -7.7215696      0.8771289
P      -15.3062043     -1.7812004      2.7292679
O      -15.9277395     -0.9005461      1.5557829
C      -16.5034582     -1.5180498      0.3809121
X      -16.7314886     -0.4502589     -0.6848126
X      -17.5922880      1.7468973     -0.7043551
X      -17.9099400      3.8238964      1.4716256
P      -13.3202364     -0.4386913     -2.4481101
O      -13.4736060     -0.6466943     -4.0402076
C      -12.4094967     -0.3128498     -4.9405096
X      -12.7992461     -0.6478763     -6.3823689
X      -13.8678726     -2.4331299     -7.4568910
X      -15.7725584     -4.5328521     -6.4630049
P      -14.7110615      2.6423644     -7.2173229
O      -14.0933533      3.3874762     -8.4742410
C      -13.5471059      2.6309484     -9.5720596
X      -13.0520996      3.5936896    -10.6716990
X      -13.5586133      5.7734882    -11.4102991
X      -15.0666691      8.0770148    -10.0632375
P       -9.4929372      3.9657889     -9.2384961
O       -8.7566157      5.1597139     -9.9771987
C       -7.3665567      5.0612974    -10.3742826
X       -6.7119540      6.4317796    -10.5901351
X       -7.3590474      8.6119308    -11.0982320
X       -9.8094996      9.5601421    -10.8650108
X      -10.0656656     11.7163425    -11.1974217
P       -5.3917114      7.1582627     -7.0715950
O       -5.1550670      8.7209089     -6.9318543
C       -5.7045511      9.5327449     -5.9021976
X       -5.5989811      8.8579250     -4.5463857
X       -4.8002932      6.8242358     -3.6904145
X       -3.0415039      5.1844813     -4.7784343
X       -2.1613006      3.7066804     -3.4674743
P       -3.0984113     11.1115234     -3.0973551
O       -3.0212926     11.0722263     -1.5137240
C       -1.7841776     10.9356482     -0.8126193
X       -1.8140508     11.6404125      0.5201670
X       -3.0678879     13.4377151      1.2888838
X       -5.6638869     14.4787827      0.2308365
P       -2.7865042      8.2792816      2.4034707
O       -1.9436451      7.9443860      3.7068907
C       -2.2759713      8.3998625      5.0383617
X       -1.8551985      7.4861600      6.1117122
X       -1.3891919      5.1954459      6.1315736
X       -0.4691667      3.9858711      4.0087797
X        1.1337416      2.5790473      4.3683316
P        1.7087080      8.7210084      6.8991646
O        2.2473166      8.2576622      8.3096158
C        2.5795778      9.2202072      9.2969994
X        3.0432403      8.5736777     10.5752090
X        2.8324813      6.4523707     11.5195815
X        2.5611016      4.3866271      9.9101060
X        2.9028849      2.1780874     10.9638372
P        6.8456464      8.3609791      9.8866866
O        7.5453877      7.2127440     10.7496962
C        8.4830758      6.2534889     10.2324967
X        8.0754458      5.8375448      8.8275628
X        8.5585969      6.5551656      6.6461209
X       11.1019218      7.8565121      5.7006944
P        9.7758129      2.4013307      8.6365647
O       10.0455004      2.0584160      7.0988980
C       11.1362919      1.2729680      6.6100388
X       11.0025833      0.9745915      5.1228233
X       11.8552324      1.9579033      3.1708563
X       14.1752623      3.8103521      2.6964896
P       13.2045558     -2.1664556      5.0656749
O       13.9261291     -2.2991717      3.6558588
C       13.3925817     -3.1160801      2.6206944
X       14.2030352     -2.8805556      1.3653424
X       15.6132776     -1.1622414      0.6272928
X       17.1396946      0.2121081      2.2558219
X       18.8595843      1.4463046      1.0169609
   142
  Step:         1875 Total energy:    2247.9109924290010      Temperature:   0.61599999999999999     
O       -6.9179864     -2.5675275     -8.8884506
C       -7.1034607     -3.0803849    -10.2097513
X       -6.4576493     -2.1548483    -11.2264247
X       -5.7008288      0.0643304    -11.2253660
X       -4.6002968      1.1983712     -9.1355765
X       -3.2937221      3.1757047     -9.7484492
P       -3.0770651     -3.9919219    -11.4610536
O       -1.9524908     -3.0718192    -12.1147129
C       -1.4638809     -3.1499080    -13.4664157
X       -0.3913133     -2.0786386    -13.6597290
X        0.1047675      0.0420893    -12.7699575
X       -0.4376266      0.9912852    -10.3831578
X        1.1790604      2.6844022     -9.6496834
P        2.6718125     -4.0522566    -12.5616990
O        3.1435165     -3.6421252    -11.0913806
C        4.0361931     -2.5709450    -10.7890092
X        4.5034917     -2.7006575     -9.3501441
X        3.9791775     -4.0770211     -7.5193774
X        3.0567355     -6.5123498     -7.8930049
X        3.6339345     -7.9673733     -6.0136290
P        7.8755551     -4.2568729     -9.9763362
O        8.8249090     -4.1145304     -8.7045031
C       10.1430029     -4.6505294     -8.6279884
X       10.9166797     -4.0761976     -7.4653898
X       10.7729494     -2.1239618     -6.1878659
X        8.5277614     -0.8486116     -5.7699815
X        8.7279802      0.7108302     -3.8776374
P        9.9546431     -6.6702726     -4.8438142
O       10.0981294     -6.0428673     -3.3692796
C       11.3156785     -5.8817105     -2.6368258
X       11.0524072     -5.1555248     -1.3374247
X        9.2550337     -3.9468312     -0.4781278
X        6.3410766     -4.0318169     -1.4303982
P       10.6801638     -8.2093167      0.9148852
O        9.8182421     -7.8404812      2.1903853
C        8.6315334     -8.5437536      2.5758345
X        8.9963230     -9.6828836      3.5317852
X       11.0352681    -10.5917821      4.2506681
X       13.2863931     -9.3381089      4.7083406
X       14.6014843    -10.4787990      6.4371825
P        8.3500275     -7.8126654      6.7890254
O        9.0859005     -8.4688172      8.0266150
C        8.6262776     -9.6685161      8.6358818
X        8.1045267     -9.4278966     10.0403013
X        8.2314774     -7.6649059     11.5943395
X        8.5044669     -5.1214645     10.9889725
X        7.7634979     -3.7300832     12.8580486
P        4.4446121     -8.7424467      9.0120765
O        3.6686880     -7.9354852     10.1172206
C        2.8770344     -8.5903324     11.0908419
X        2.1091270     -7.5737293     11.9169646
X        1.9304913     -5.2402517     12.1570010
X        2.7723430     -3.0031623     10.3303234
P       -0.9619531     -7.6676288      9.6286658
O       -1.6719330     -6.2568651      9.6381452
C       -2.6094934     -5.8850151     10.6302799
X       -3.1496612     -4.4992831     10.3274113
X       -2.4705842     -2.6486641      9.0607860
X       -0.7653566     -2.1851509      6.5645550
P       -6.0268380     -5.5381741      8.0370330
O       -6.7109195     -4.2605357      7.4103570
C       -7.5724349     -3.3653118      8.1220327
X       -8.0651795     -2.2897297      7.1622451
X       -7.1877033     -1.2231001      5.2615657
X       -5.2073870     -2.1601393      3.2309122
P      -11.0785639     -4.2175214      5.7678143
O      -11.3281159     -4.0062987      4.2113738
C      -11.1870336     -2.7751139      3.4921618
X      -11.7661132     -3.0162270      2.0988347
X      -11.7187867     -4.7760148      0.5262063
X      -11.2155016     -7.7358228      0.8812266
P      -15.2862454     -1.7833287      2.7349482
O      -15.8795345     -0.8951986      1.5453393
C      -16.4839995     -1.4613431      0.3864863
X      -16.7669145     -0.4385097     -0.6938900
X      -17.5208278      1.7773872     -0.7287917
X      -17.9292354      3.8206147      1.4595122
P      -13.2868217     -0.4713769     -2.4366000
O      -13.4383347     -0.6398911     -3.9965227
C      -12.4173819     -0.2892529     -4.9366681
X      -12.7905201     -0.6317653     -6.3682397
X      -13.8694484     -2.4361337     -7.4426964
X      -15.7828109     -4.5551798     -6.4632079
P      -14.6977681      2.6104691     -7.1932883
O      -14.0810612      3.3792730     -8.4557701
C      -13.6030707      2.6951964     -9.6184330
X      -13.0091810      3.6114097    -10.6208202
X      -13.5912418      5.7204436    -11.4036953
X      -15.0358869      8.0508761    -10.0487414
P       -9.5096580      3.9807786     -9.1948321
O       -8.6981962      5.1417903     -9.9563269
C       -7.3194874      5.1060330    -10.3833699
X       -6.6857979      6.4991529    -10.5540979
X       -7.3691123      8.6804206    -11.1023649
X       -9.8247218      9.5896708    -10.8966579
X      -10.0826171     11.7400248    -11.2155324
P       -5.3468112      7.1240578     -7.0375370
O       -5.1626867      8.7228295     -6.8681306
C       -5.9008048      9.4679302     -5.8957606
X       -5.7485318      8.8149347     -4.5241067
X       -4.9142849      6.7364648     -3.8168730
X       -3.0307421      5.1490083     -4.7994137
X       -2.1060785      3.6550725     -3.4698785
P       -3.0248737     11.0693615     -3.0887336
O       -2.9337665     11.1120497     -1.4879470
C       -1.6499024     11.0011090     -0.8260059
X       -1.7701874     11.5739081      0.5752130
X       -3.0328030     13.4145145      1.3444267
X       -5.6465818     14.5127028      0.1907151
P       -2.7599012      8.3058484      2.5204428
O       -1.9656940      7.8641283      3.8058420
C       -2.4312544      8.4049184      5.0288782
X       -2.0028713      7.4046645      6.1418657
X       -1.4262674      5.1319110      6.1811760
X       -0.4589399      3.9542329      4.0285694
X        1.1743331      2.5930681      4.3002217
P        1.7084768      8.6577123      6.8380474
O        2.1988369      8.2006429      8.3013533
C        2.6892400      9.2470176      9.1747572
X        3.0897500      8.6375199     10.5233947
X        2.8031495      6.5011157     11.4528260
X        2.5494915      4.3778414      9.9215963
X        2.9307308      2.1735281     10.9269167
P        6.8121079      8.3290151      9.8115697
O        7.4503944      7.1802201     10.7191597
C        8.4188413      6.2605777     10.1988164
X        8.0166691      5.8430018      8.7901497
X        8.6108232      6.5909275      6.6585757
X       11.1459694      7.8533999      5.6764621
P        9.8261755      2.4292027      8.6280470
O       10.0740118      2.0128023      7.1042751
C       11.1751567      1.2416282      6.6143897
X       11.0266678      0.9785269      5.1225631
X       11.7914977      2.0237539      3.1592070
X       14.1787007      3.7966491      2.6885414
P       13.2282906     -2.1569327      5.1192677
O       13.9089773     -2.2993322      3.6865683
C       13.3796714     -3.1087052      2.6330839
X       14.1860365     -2.8664817      1.3685075
X       15.6511828     -1.1860336      0.6526226
X       17.1554232      0.2143206      2.2850186
X       18.8540201      1.4459458      1.0248745
   142
  Step:         1900 Total energy:    2250.0575862988662      Temperature:   0.61599999999999999     
O       -6.8838415     -2.6026439     -8.8895816
C       -7.1145592     -3.0497787    -10.2304722
X       -6.4398842     -2.1331439    -11.2403635
X       -5.6774604      0.0863450    -11.2113595
X       -4.5980260      1.2081764     -9.0985439
X       -3.2893146      3.1953657     -9.7190900
P       -3.0990607     -4.0105559    -11.5001509
O       -1.9905793     -3.0347370    -12.0912598
C       -1.4659348     -3.1043335    -13.4307274
X       -0.3844152     -2.0617121    -13.6291739
X        0.1223592      0.0413130    -12.7432855
X       -0.4270066      0.9965574    -10.3547318
X        1.1901103      2.6943618     -9.6331092
P        2.6981787     -4.0631484    -12.5894891
O        3.1896264     -3.6696756    -11.1247404
C        4.0414751     -2.5759197    -10.7620618
X        4.4970262     -2.6930077     -9.3123516
X        3.9261273     -4.0610637     -7.5056411
X        3.0535014     -6.5030668     -7.8711617
X        3.6379978     -7.9667506     -5.9823891
P        7.8931503     -4.2848993     -9.9665220
O        8.8179869     -4.0729510     -8.6882379
C       10.1623014     -4.6151109     -8.6698318
X       10.9186463     -4.0488885     -7.4507272
X       10.7631145     -2.0924552     -6.1606297
X        8.5058485     -0.8260822     -5.7671446
X        8.7365520      0.6778976     -3.8595209
P        9.9493745     -6.6336876     -4.8352987
O       10.1106608     -6.0416771     -3.3663553
C       11.3498983     -5.9351753     -2.6334106
X       11.0891130     -5.1649671     -1.3274079
X        9.2771436     -3.9146604     -0.5299563
X        6.3534019     -4.0254778     -1.4101920
P       10.6635045     -8.1682043      0.9037941
O        9.7510829     -7.8165919      2.1798025
C        8.6027522     -8.5646189      2.5873204
X        8.9958957     -9.6741557      3.5419824
X       10.9913233    -10.6125006      4.3192221
X       13.2704465     -9.3392939      4.6926489
X       14.5989522    -10.4775628      6.4205250
P        8.3544327     -7.7964053      6.7977589
O        9.0881190     -8.4683896      8.0585880
C        8.6460118     -9.6906265      8.6847903
X        8.0599916     -9.3955420     10.0478597
X        8.1988454     -7.6571350     11.6038709
X        8.5126928     -5.1356048     10.9831878
X        7.7785731     -3.7135020     12.8488220
P        4.4851880     -8.7393345      8.9900493
O        3.6847646     -7.9328683     10.1252132
C        2.8806802     -8.5961664     11.1037150
X        2.0169442     -7.6218541     11.8804791
X        1.9839664     -5.2929319     12.1049989
X        2.7973513     -3.0262098     10.3081351
P       -0.9834174     -7.6600582      9.6573972
O       -1.6899858     -6.2361464      9.5725939
C       -2.5842844     -5.8615626     10.6167321
X       -3.1554399     -4.4880794     10.3310120
X       -2.4988670     -2.6539756      9.0269505
X       -0.7379529     -2.2115943      6.5549675
P       -6.0681077     -5.5453077      8.0569018
O       -6.6645523     -4.2061748      7.4097507
C       -7.5785606     -3.3451156      8.1105029
X       -8.0851452     -2.2856916      7.1639176
X       -7.1883406     -1.2495877      5.2593975
X       -5.1914009     -2.2036068      3.2156623
P      -11.0877037     -4.1878155      5.7561164
O      -11.3468847     -3.9876170      4.1951087
C      -11.1372127     -2.8129729      3.4271943
X      -11.6930927     -3.0069780      2.0479647
X      -11.7362306     -4.8208899      0.5702898
X      -11.2178413     -7.7462881      0.8819124
P      -15.3078923     -1.7728934      2.7473458
O      -15.8299896     -0.8717905      1.5125583
C      -16.4669078     -1.4467106      0.3747268
X      -16.7222280     -0.3879464     -0.7046031
X      -17.5292118      1.8019354     -0.7159156
X      -17.9466432      3.8160010      1.4425684
P      -13.2800050     -0.5053737     -2.3983394
O      -13.4160203     -0.6651021     -4.0045324
C      -12.4074882     -0.2486046     -4.9523254
X      -12.7951511     -0.6214169     -6.3554828
X      -13.9119111     -2.4245540     -7.3699108
X      -15.7896025     -4.5734703     -6.4666931
P      -14.6862339      2.5844251     -7.1717235
O      -14.0748321      3.3479222     -8.4287613
C      -13.5832378      2.6420202     -9.5705696
X      -13.0344935      3.5958484    -10.6246549
X      -13.5368865      5.7590290    -11.4522943
X      -15.0103624      8.0303945    -10.0328119
P       -9.4860744      4.0163025     -9.1832743
O       -8.6552712      5.2075562     -9.8892841
C       -7.3048448      5.1521732    -10.3121559
X       -6.6700137      6.5096420    -10.5450245
X       -7.4107082      8.6669083    -11.1607908
X       -9.8457069      9.6345207    -10.9335485
X      -10.1023154     11.7532495    -11.2306166
P       -5.3130720      7.1337102     -7.0271689
O       -5.1524079      8.6787754     -6.7167747
C       -6.0528128      9.3749395     -5.8754009
X       -5.8961369      8.6839967     -4.5274118
X       -4.9534981      6.6363486     -3.8473373
X       -3.0232436      5.1077534     -4.8054639
X       -2.0693227      3.6292429     -3.4926468
P       -2.9379219     11.0481452     -3.0862923
O       -2.7867217     11.0923111     -1.5046808
C       -1.5641576     10.9458637     -0.7583791
X       -1.8024950     11.5960078      0.6092451
X       -3.1984656     13.3036886      1.3830998
X       -5.6048812     14.5396472      0.1598658
P       -2.7780748      8.3286697      2.5337314
O       -1.9678988      7.9465491      3.9033409
C       -2.4295680      8.3712844      5.1596290
X       -2.0504975      7.3248257      6.2307743
X       -1.4337789      5.1183491      6.2207333
X       -0.4919255      3.9535008      4.0376032
X        1.2502780      2.5724865      4.2387659
P        1.6307086      8.5585170      6.7679231
O        2.1610250      8.2821055      8.2361374
C        2.7474678      9.2525515      9.1044712
X        3.1153837      8.6052944     10.4342764
X        2.8081237      6.5023378     11.4302991
X        2.5306935      4.3785383      9.9193907
X        2.9546779      2.1809968     10.8957976
P        6.7847358      8.2942957      9.7476433
O        7.3650825      7.1290332     10.6652079
C        8.3464689      6.2304933     10.1816019
X        7.9795321      5.8538430      8.7590060
X        8.6537907      6.5532551      6.6219103
X       11.1909586      7.8541028      5.6493041
P        9.8754520      2.4785295      8.6081748
O       10.0464986      1.9695127      7.1037965
C       11.1964411      1.2553897      6.6372645
X       11.0802312      0.9916854      5.1465284
X       11.7798476      2.0510706      3.1783615
X       14.1758134      3.7812773      2.6792387
P       13.2371963     -2.1325713      5.1574586
O       13.9084793     -2.3284703      3.7231140
C       13.3635550     -3.0983420      2.6417532
X       14.1772831     -2.8500449      1.3784079
X       15.6823253     -1.2004778      0.6726918
X       17.1669279      0.2134697      2.3088966
X       18.8507485      1.4484616      1.0324115
   142
  Step:         1925 Total energy:    2247.0888806361227      Temperature:   0.61599999999999999     
O       -6.8429405     -2.6359462     -8.9079940
C       -7.1165331     -3.0339002    -10.2512430
X       -6.4335461     -2.1059357    -11.2394210
X       -5.6083280      0.0871784    -11.1981606
X       -4.5936470      1.2300098     -9.0685861
X       -3.2905416      3.2065677     -9.6891735
P       -3.1370010     -4.0067452    -11.5546374
O       -1.9974404     -2.9995102    -12.0517007
C       -1.4540506     -3.0807516    -13.3703158
X       -0.3809713     -2.0220718    -13.5989003
X        0.1416620      0.0936452    -12.7240455
X       -0.4165170      0.9993172    -10.3235651
X        1.2005331      2.7042016     -9.6239835
P        2.7263554     -4.0654256    -12.6117292
O        3.2414617     -3.7279761    -11.1279068
C        4.0203444     -2.5724309    -10.7719420
X        4.4675622     -2.6742860     -9.3082874
X        3.8496580     -4.0245534     -7.4832609
X        3.0565925     -6.5046037     -7.8450836
X        3.6344070     -7.9531915     -5.9611380
P        7.9006063     -4.3022100     -9.9511413
O        8.8672418     -4.0628727     -8.7161589
C       10.1848284     -4.5801049     -8.6347614
X       10.9115745     -3.9953492     -7.4652674
X       10.7512977     -2.0826110     -6.1637786
X        8.4890035     -0.8071484     -5.7730644
X        8.7393165      0.6568352     -3.8314099
P        9.9558531     -6.6024096     -4.8190111
O       10.1227805     -6.0306667     -3.3434185
C       11.3697773     -5.9428854     -2.6587307
X       11.1134411     -5.1673102     -1.3874936
X        9.3229831     -3.8826223     -0.5721058
X        6.3645837     -4.0152263     -1.3909398
P       10.6302780     -8.1496351      0.9243627
O        9.6934630     -7.7603600      2.1476653
C        8.6028721     -8.5785191      2.5835202
X        9.0048625     -9.6754899      3.5636299
X       10.9806919    -10.6179032      4.3824684
X       13.2509930     -9.3505498      4.6806280
X       14.5911948    -10.4654657      6.3915100
P        8.3695194     -7.7702988      6.8190274
O        9.1083223     -8.4818043      8.0267607
C        8.6563584     -9.6751457      8.6951425
X        8.0315383     -9.3850739     10.0572449
X        8.1698576     -7.6593463     11.6355362
X        8.5178420     -5.1377141     10.9851207
X        7.7963773     -3.6966897     12.8264620
P        4.4897123     -8.7288905      8.9808617
O        3.6802419     -7.9582572     10.1188347
C        2.8651882     -8.6378524     11.0798384
X        2.0297095     -7.6392070     11.8839695
X        1.9875485     -5.2987925     12.0812858
X        2.8276908     -3.0481060     10.2827463
P       -1.0169098     -7.6855634      9.6383703
O       -1.6803752     -6.2513268      9.6043833
C       -2.6266099     -5.8364445     10.5915358
X       -3.1736992     -4.4510119     10.3067611
X       -2.4896801     -2.6205887      9.0163668
X       -0.7122215     -2.2383179      6.5456157
P       -6.0890651     -5.5124089      8.0939459
O       -6.6769566     -4.2093555      7.4030092
C       -7.6288824     -3.3790232      8.0622691
X       -8.0583534     -2.2549017      7.1413609
X       -7.1815561     -1.2665534      5.2131371
X       -5.1825933     -2.2396532      3.1926406
P      -11.1086596     -4.1578421      5.7540818
O      -11.3236928     -3.9890873      4.1749381
C      -11.1076536     -2.7897234      3.4278957
X      -11.6613866     -2.9719282      2.0180868
X      -11.7503004     -4.8083081      0.5036512
X      -11.2183924     -7.7686131      0.8811575
P      -15.3116354     -1.7478468      2.7227129
O      -15.8282516     -0.8534187      1.5196753
C      -16.4297333     -1.4345919      0.3705811
X      -16.6400726     -0.3713080     -0.7135392
X      -17.5868724      1.7968852     -0.8001243
X      -17.9642211      3.8230246      1.4310052
P      -13.2734203     -0.5386426     -2.4013007
O      -13.3870866     -0.6916900     -3.9669313
C      -12.3986211     -0.2305452     -4.8885410
X      -12.7876514     -0.5950983     -6.3234595
X      -13.9314964     -2.3955274     -7.3572913
X      -15.8005919     -4.5941681     -6.4694567
P      -14.6911547      2.5757520     -7.1499392
O      -14.0667139      3.3333328     -8.4182755
C      -13.5413198      2.6402443     -9.5622443
X      -13.0172673      3.5739746    -10.6654876
X      -13.4898277      5.7515438    -11.3973427
X      -14.9843424      8.0129187    -10.0204104
P       -9.4417700      4.0682088     -9.1995450
O       -8.6700678      5.3252519     -9.7932345
C       -7.3135190      5.1701638    -10.2167320
X       -6.6714340      6.5162819    -10.5374422
X       -7.4602701      8.6249269    -11.2429856
X       -9.8657725      9.6417002    -10.9691674
X      -10.1254222     11.8054748    -11.2520628
P       -5.2776419      7.1312696     -7.0236760
O       -5.1573909      8.6844648     -6.6805504
C       -6.1075190      9.2545771     -5.7704299
X       -5.8914049      8.5992376     -4.4232031
X       -4.9417811      6.5528531     -3.7493462
X       -3.0255905      5.0655966     -4.8136388
X       -2.0469050      3.6265809     -3.5281865
P       -2.8907880     10.9819841     -3.1347760
O       -2.7199189     11.0100380     -1.5256868
C       -1.5346025     10.9527326     -0.7150277
X       -1.7976324     11.5065850      0.6813322
X       -3.2650318     13.1697057      1.5154622
X       -5.5741876     14.5752390      0.1213884
P       -2.8020856      8.3395284      2.5405226
O       -2.0220333      8.1316379      3.9105508
C       -2.4322249      8.3428410      5.2750936
X       -1.9786512      7.3136330      6.3525564
X       -1.4257940      5.0366830      6.2605215
X       -0.4655709      3.9120979      4.0392057
X        1.2613049      2.5963417      4.1728701
P        1.5192114      8.4779986      6.6854321
O        2.1171760      8.2888637      8.1669296
C        2.6777722      9.2529119      9.0557906
X        3.0824276      8.5961618     10.3573031
X        2.8111872      6.5071593     11.4232149
X        2.5077936      4.3947428      9.8835621
X        2.9767815      2.1902340     10.8785589
P        6.7715377      8.2555767      9.6967536
O        7.3426733      7.0884522     10.6236780
C        8.3151984      6.1752786     10.1231577
X        8.0029287      5.8014789      8.6851649
X        8.7239579      6.5137652      6.5726762
X       11.2320701      7.8562323      5.6206925
P        9.9123539      2.5442467      8.5863481
O       10.0087186      1.9516127      7.1164346
C       11.2157395      1.3425526      6.6655560
X       11.0786607      1.0083671      5.1939604
X       11.8142991      1.9879468      3.1976765
X       14.1736909      3.7730835      2.6658945
P       13.2432147     -2.1177315      5.1696345
O       13.9379167     -2.3560009      3.7528151
C       13.3350225     -3.0543853      2.6587958
X       14.1791455     -2.8486810      1.4136520
X       15.6792544     -1.1964163      0.6951734
X       17.1761828      0.2111758      2.3247630
X       18.8516021      1.4567342      1.0396776
   142
  Step:         1950 Total energy:    2255.0074818925214      Temperature:   0.61599999999999999     
O       -6.8005632     -2.6632836     -8.9203773
C       -7.1256217     -3.0235959    -10.2664461
X       -6.4397968     -2.0868025    -11.2511347
X       -5.5656105      0.0876252    -11.1823937
X       -4.5894976      1.2476423     -9.0413363
X       -3.2900445      3.2201996     -9.6606353
P       -3.1774749     -3.9792382    -11.6085819
O       -1.9822706     -3.0078165    -12.0217600
C       -1.4331723     -3.0392654    -13.3280249
X       -0.3455081     -1.9862245    -13.5416036
X        0.1353128      0.1500839    -12.7000914
X       -0.4065827      1.0006186    -10.2938985
X        1.2081777      2.7135172     -9.6181302
P        2.7507838     -4.0602957    -12.6182285
O        3.2802685     -3.7667331    -11.1509991
C        3.9898112     -2.5969802    -10.7717735
X        4.4249854     -2.6934352     -9.3272424
X        3.7970832     -4.0077141     -7.4980148
X        3.0589370     -6.4987531     -7.8292157
X        3.6274006     -7.9378674     -5.9343670
P        7.8771426     -4.3080863     -9.9440207
O        8.8888058     -4.0347730     -8.7291230
C       10.2087094     -4.5782989     -8.6485766
X       10.9532514     -3.9993937     -7.4468590
X       10.7534357     -2.0235146     -6.1860680
X        8.4725574     -0.7879847     -5.7766296
X        8.7316745      0.6451169     -3.7981502
P        9.9616944     -6.5859164     -4.8239795
O       10.1224408     -6.0138874     -3.3507023
C       11.3731866     -5.9085440     -2.6857111
X       11.1433390     -5.1407676     -1.4252136
X        9.3366281     -3.9008077     -0.6263373
X        6.3794395     -4.0015723     -1.3712451
P       10.6004555     -8.1370441      0.9466505
O        9.6482588     -7.7287658      2.1505611
C        8.5735608     -8.5721025      2.5848102
X        8.9802486     -9.6622249      3.5882527
X       10.9681773    -10.6375052      4.3876995
X       13.2280559     -9.3580763      4.6624574
X       14.5906547    -10.4539950      6.3679452
P        8.3900163     -7.7462983      6.8283383
O        9.1549231     -8.4907687      8.0338689
C        8.6213487     -9.6519383      8.6701797
X        8.0696913     -9.3800673     10.0654574
X        8.1472901     -7.6488868     11.6378008
X        8.5216923     -5.1449932     10.9883461
X        7.8109180     -3.6736229     12.8031242
P        4.4517819     -8.7219459      8.9735791
O        3.6374129     -7.9863194     10.1082299
C        2.8492066     -8.6677277     11.0674709
X        2.0901720     -7.6404585     11.8786685
X        1.9756133     -5.3003779     12.0821574
X        2.8599667     -3.0714578     10.2566742
P       -1.0457552     -7.7257079      9.6102869
O       -1.6956015     -6.2613988      9.6604519
C       -2.6974416     -5.8282643     10.5896190
X       -3.1794521     -4.4177646     10.2760245
X       -2.4429617     -2.5721835      9.0270840
X       -0.6899198     -2.2658809      6.5374470
P       -6.0943565     -5.4720610      8.1376030
O       -6.7503215     -4.2452584      7.3699399
C       -7.6400315     -3.3594942      8.0456719
X       -8.0918213     -2.2631607      7.0734202
X       -7.1392925     -1.2405879      5.1915461
X       -5.1792773     -2.2725694      3.1607522
P      -11.1324165     -4.1153048      5.7429446
O      -11.2617656     -3.9787552      4.1631576
C      -11.1444191     -2.7700646      3.3915538
X      -11.7055390     -3.0174928      1.9955895
X      -11.6787369     -4.8352057      0.5296699
X      -11.2261348     -7.7742149      0.8769417
P      -15.2681995     -1.7388424      2.6989589
O      -15.8584456     -0.8144322      1.5312245
C      -16.3694154     -1.3675496      0.3095987
X      -16.6822316     -0.3349208     -0.7159300
X      -17.5806099      1.7966746     -0.7339689
X      -17.9815344      3.8211183      1.4055990
P      -13.2346139     -0.5659785     -2.3913379
O      -13.3911172     -0.7295622     -3.9774830
C      -12.3965728     -0.2571998     -4.8672950
X      -12.7966585     -0.6200475     -6.2826965
X      -13.9456844     -2.3865665     -7.2879298
X      -15.8070474     -4.6055751     -6.4749486
P      -14.6998954      2.5967619     -7.1548134
O      -14.0533583      3.3231461     -8.4462842
C      -13.5253782      2.6307463     -9.5810715
X      -12.9166303      3.5517460    -10.6235258
X      -13.4512117      5.6845625    -11.3753291
X      -14.9628636      8.0039487    -10.0053684
P       -9.4358838      4.1096444     -9.2118966
O       -8.6907115      5.4152117     -9.7146783
C       -7.3357948      5.2176305    -10.1767458
X       -6.7012746      6.5466601    -10.5144415
X       -7.4800039      8.6051791    -11.3070025
X       -9.8933923      9.6625076    -11.0092761
X      -10.1413984     11.8332082    -11.2704850
P       -5.2274559      7.1274507     -7.0337338
O       -5.2530073      8.6789231     -6.6948561
C       -6.0307046      9.2107195     -5.6039766
X       -5.7358384      8.5478345     -4.2740007
X       -4.8635303      6.4891572     -3.5652009
X       -3.0596845      5.0535720     -4.8367824
X       -2.0186493      3.6121475     -3.5516898
P       -2.8763281     10.8601601     -3.1659937
O       -2.7336068     10.9175594     -1.5474388
C       -1.5569661     10.9529915     -0.7075213
X       -1.8771859     11.4725534      0.6888871
X       -3.3522525     13.1015054      1.4914608
X       -5.5363730     14.6073842      0.0885993
P       -2.8431570      8.3321655      2.5904259
O       -2.0247751      8.1511764      3.9948393
C       -2.5023601      8.3676583      5.3754399
X       -2.0105264      7.2503886      6.2832068
X       -1.3287278      4.9689445      6.2172313
X       -0.4569638      3.8928588      4.0432001
X        1.2649953      2.6137335      4.1159331
P        1.5026149      8.4667978      6.6439162
O        2.0694723      8.1581722      8.1023385
C        2.5160846      9.2095467      8.9910195
X        2.9990629      8.6314560     10.3261897
X        2.7778092      6.5130370     11.3422612
X        2.4907933      4.4014729      9.8354475
X        2.9879398      2.2241448     10.8626808
P        6.7637463      8.2157138      9.6587801
O        7.3699160      7.0403842     10.5471699
C        8.3482524      6.1298748     10.0466542
X        8.0132311      5.7588910      8.6130141
X        8.7689526      6.4668892      6.5038511
X       11.2721489      7.8602698      5.5909221
P        9.9402000      2.5921416      8.5921223
O        9.9972647      1.9580537      7.1397415
C       11.2150674      1.4035458      6.6681547
X       11.0699561      1.0305752      5.2092335
X       11.8823008      1.8970203      3.1950583
X       14.1682926      3.7659846      2.6504762
P       13.2515753     -2.1224260      5.1835515
O       13.9549631     -2.3460932      3.7760622
C       13.3132541     -3.0045647      2.6880206
X       14.1786850     -2.8463102      1.4569214
X       15.6651183     -1.1911192      0.7176111
X       17.1837077      0.2092280      2.3304424
X       18.8514259      1.4658111      1.0503257
   142
  Step:         1975 Total energy:    2261.8740445987614      Temperature:   0.61600000000000021     
O       -6.7633759     -2.6846374     -8.9303231
C       -7.1322851     -3.0004789    -10.2779490
X       -6.4536178     -2.0617634    -11.2624070
X       -5.5876752      0.1111393    -11.1562661
X       -4.5839985      1.2524915     -9.0153878
X       -3.2816814      3.2436162     -9.6314848
P       -3.2029721     -3.9588370    -11.6505711
O       -1.9614904     -3.0109109    -12.0062956
C       -1.3921808     -3.0048083    -13.3141562
X       -0.3023621     -1.9638137    -13.4849613
X        0.1545067      0.1858420    -12.6839789
X       -0.4005880      1.0083306    -10.2567518
X        1.2155949      2.7257887     -9.6090533
P        2.7647192     -4.0644525    -12.6396686
O        3.2873376     -3.7990489    -11.1569592
C        3.9831310     -2.6073057    -10.7894813
X        4.4173507     -2.6996175     -9.3349926
X        3.7932530     -4.0021344     -7.4781521
X        3.0554129     -6.4969839     -7.8236398
X        3.6206723     -7.9180841     -5.8986266
P        7.8557245     -4.3029365     -9.9268257
O        8.8912819     -4.0061914     -8.7407997
C       10.2059171     -4.5879957     -8.6417554
X       10.9682719     -3.9788157     -7.4524760
X       10.7238247     -1.9847210     -6.2281819
X        8.4751838     -0.7656185     -5.7642965
X        8.7139220      0.6345755     -3.7702167
P        9.9622241     -6.5859424     -4.8486121
O       10.1302244     -5.9945114     -3.3850624
C       11.4068416     -5.8920178     -2.7297744
X       11.1802082     -5.1325547     -1.4128489
X        9.3605028     -3.8724131     -0.5811036
X        6.3901465     -3.9842783     -1.3514113
P       10.5856791     -8.1101077      0.9552899
O        9.6148788     -7.7416753      2.1861367
C        8.5252625     -8.5404961      2.6411498
X        8.9369370     -9.6416359      3.5839364
X       10.9280845    -10.6290186      4.3299869
X       13.2037534     -9.3612938      4.6397870
X       14.5992249    -10.4426442      6.3527933
P        8.4289409     -7.7289609      6.8460326
O        9.1547664     -8.4592867      8.0568427
C        8.6728227     -9.6477766      8.6676007
X        8.0332568     -9.3799100     10.0318598
X        8.1798715     -7.6686502     11.6355430
X        8.5289307     -5.1493795     10.9856310
X        7.8219288     -3.6403212     12.7880356
P        4.4280351     -8.7391333      8.9506564
O        3.6062188     -7.9562159     10.0818223
C        2.8904276     -8.6427755     11.1285735
X        2.0138210     -7.6565142     11.8670268
X        2.0496910     -5.3282418     12.0601842
X        2.8945321     -3.0967836     10.2344761
P       -1.0551722     -7.7302372      9.6313421
O       -1.7400038     -6.2830263      9.6431814
C       -2.7121149     -5.8202127     10.5901993
X       -3.1865661     -4.3955038     10.3003654
X       -2.3799022     -2.5725162      9.0529949
X       -0.6660010     -2.2921605      6.5315208
P       -6.1152815     -5.4555576      8.1667604
O       -6.8160366     -4.2589675      7.3690004
C       -7.6674417     -3.3165023      8.0009954
X       -8.0912912     -2.2492035      7.0251351
X       -7.1252504     -1.2401952      5.1559343
X       -5.1774774     -2.3014041      3.1282212
P      -11.1563468     -4.0573318      5.7209805
O      -11.2162096     -3.9886601      4.1323103
C      -11.2126016     -2.7650355      3.3977987
X      -11.7336747     -3.0250446      2.0022604
X      -11.6377696     -4.8067786      0.4920389
X      -11.2347682     -7.7840007      0.8754853
P      -15.2357928     -1.7248556      2.6807030
O      -15.8267106     -0.7966374      1.5346868
C      -16.3944673     -1.4126824      0.3492350
X      -16.6526039     -0.3833440     -0.7616781
X      -17.6082099      1.8034774     -0.8325949
X      -17.9995306      3.8362820      1.3967495
P      -13.2110534     -0.5806404     -2.3755218
O      -13.3763045     -0.7568889     -3.9466750
C      -12.3909717     -0.2865574     -4.8481252
X      -12.8083269     -0.6244322     -6.2717766
X      -13.9235778     -2.4052075     -7.2877303
X      -15.8149637     -4.6153526     -6.4757431
P      -14.6889596      2.6309398     -7.1914647
O      -14.0484967      3.3035096     -8.4774939
C      -13.4035902      2.5624936     -9.5157406
X      -12.9139934      3.5630987    -10.5866577
X      -13.4217708      5.7133043    -11.3387266
X      -14.9375724      7.9926062     -9.9914537
P       -9.4434487      4.1288956     -9.1702220
O       -8.7074393      5.4325533     -9.6864470
C       -7.3749906      5.2868845    -10.1771033
X       -6.7495837      6.6105310    -10.5153255
X       -7.4941206      8.6700851    -11.3056635
X       -9.9197112      9.6987209    -11.0530213
X      -10.1461782     11.8313910    -11.2831176
P       -5.1857935      7.1365804     -7.0593944
O       -5.3137113      8.6637749     -6.6321579
C       -5.9369878      9.2058328     -5.4588239
X       -5.5985790      8.5067810     -4.1433234
X       -4.7539672      6.4507337     -3.3892196
X       -3.0860632      5.0374625     -4.8300482
X       -1.9947955      3.6066239     -3.5933074
P       -2.8284466     10.7315450     -3.1293315
O       -2.7982601     10.8495270     -1.5633082
C       -1.6142389     10.8678429     -0.7665587
X       -1.9795610     11.4592801      0.6148865
X       -3.3714864     13.1323874      1.4925030
X       -5.5057395     14.6453675      0.0546182
P       -2.8890254      8.3014066      2.6963191
O       -2.0893940      8.0545151      3.9794621
C       -2.6070911      8.2324622      5.2871004
X       -2.1125422      7.2597345      6.2736344
X       -1.3253769      5.0129273      6.2431652
X       -0.4762065      3.9066404      3.9914113
X        1.3017272      2.5931625      4.0751865
P        1.5726328      8.4853137      6.6561961
O        2.0870266      8.0723079      8.0812036
C        2.4211045      9.1436136      8.9497399
X        2.8908767      8.5982406     10.2738234
X        2.7349905      6.5172646     11.3241047
X        2.4820223      4.4048541      9.7750538
X        2.9918071      2.2759907     10.8520820
P        6.7402064      8.1904583      9.6201981
O        7.3550759      6.9968635     10.4802747
C        8.3765133      6.1567268      9.9609551
X        8.0271624      5.7889600      8.5375308
X        8.8011369      6.4412528      6.4223787
X       11.3096076      7.8639024      5.5643762
P        9.9697612      2.5991917      8.6253449
O       10.0212356      1.9643364      7.1636955
C       11.2273761      1.3974442      6.6501731
X       11.1035268      1.0034835      5.1876268
X       11.8917624      1.8720231      3.1596710
X       14.1658735      3.7588847      2.6352157
P       13.2577601     -2.1261212      5.2262717
O       13.9480295     -2.3064802      3.8039361
C       13.3131062     -2.9883885      2.7241062
X       14.1681586     -2.8218891      1.4841522
X       15.6742573     -1.1973385      0.7225630
X       17.1891520      0.2092100      2.3335628
X       18.8539826      1.4774965      1.0646251
   142
  Step:         2000 Total energy:    2246.1100119326156      Temperature:   0.61600000000000010     
O       -6.7380816     -2.6991346     -8.9484049
C       -7.1343476     -2.9911614    -10.2884877
X       -6.4735764     -2.0196574    -11.2511872
X       -5.6486488      0.1738836    -11.1321181
X       -4.5686339      1.2588905     -8.9972111
X       -3.2766136      3.2591844     -9.5958021
P       -3.1978968     -3.9549508    -11.6839458
O       -1.9735139     -2.9946471    -12.0034410
C       -1.3501985     -3.0025526    -13.3072703
X       -0.2731845     -1.9393998    -13.4694760
X        0.2017668      0.1843467    -12.6240674
X       -0.3986253      1.0212706    -10.2187205
X        1.2230429      2.7425034     -9.5920337
P        2.7749020     -4.0849248    -12.6615818
O        3.2783722     -3.8132769    -11.1731033
C        3.9982852     -2.6324500    -10.7779615
X        4.4273608     -2.6941535     -9.3169869
X        3.8284416     -4.0255227     -7.4863477
X        3.0523245     -6.5027612     -7.8107585
X        3.6098065     -7.8867606     -5.8668018
P        7.8536749     -4.2970214     -9.9052965
O        8.8812804     -3.9845019     -8.7361352
C       10.1689985     -4.5731939     -8.6387500
X       10.9182294     -3.9583518     -7.5067883
X       10.7598451     -1.9855790     -6.2577711
X        8.4798116     -0.7438579     -5.7455613
X        8.6898790      0.6298867     -3.7372401
P        9.9678862     -6.5856320     -4.8818470
O       10.1758667     -5.9838460     -3.4115728
C       11.4012531     -5.8708557     -2.6801620
X       11.1402213     -5.1121430     -1.3975738
X        9.3600811     -3.8888061     -0.5452983
X        6.4119206     -3.9639349     -1.3260143
P       10.5641721     -8.0938099      0.9711231
O        9.6276450     -7.7171648      2.2028234
C        8.4871001     -8.4820682      2.6528076
X        8.8741502     -9.6332334      3.5922336
X       10.9037291    -10.6141133      4.2565047
X       13.1880548     -9.3689134      4.6243455
X       14.6003988    -10.4250847      6.3295805
P        8.4611273     -7.7040345      6.8639086
O        9.1757521     -8.4368243      8.0956064
C        8.6712936     -9.6513356      8.6687422
X        8.0205413     -9.3675022     10.0094015
X        8.1947947     -7.6711192     11.6077949
X        8.5375565     -5.1520278     10.9890209
X        7.8342091     -3.6113338     12.7698101
P        4.3990710     -8.7553709      8.9343103
O        3.5911348     -7.9805955     10.0565591
C        2.8634254     -8.6513514     11.0909264
X        2.0386747     -7.6434002     11.8932948
X        2.0116455     -5.2978875     12.0720891
X        2.9358178     -3.1234249     10.2139709
P       -1.0764276     -7.7132540      9.6725626
O       -1.7978667     -6.2957878      9.5962751
C       -2.6823106     -5.8209078     10.6107806
X       -3.1556541     -4.4031159     10.3376894
X       -2.3426222     -2.6092376      9.0635211
X       -0.6409710     -2.3198525      6.5304820
P       -6.1695352     -5.4635182      8.1797843
O       -6.8065196     -4.2437546      7.3970762
C       -7.7019892     -3.2994768      7.9973270
X       -8.0753682     -2.1928000      7.0232187
X       -7.1518999     -1.2473093      5.0751298
X       -5.1745350     -2.3293505      3.0914060
P      -11.1804598     -3.9981802      5.6973707
O      -11.2131426     -4.0185220      4.1098669
C      -11.2447507     -2.7833847      3.4047282
X      -11.7106253     -3.0005188      1.9711020
X      -11.6418610     -4.8224726      0.4827531
X      -11.2451620     -7.7877313      0.8746310
P      -15.2379681     -1.7059305      2.6861893
O      -15.7702277     -0.8379034      1.4565361
C      -16.4425616     -1.4001041      0.3445941
X      -16.6824349     -0.3619126     -0.7158287
X      -17.5614851      1.7946451     -0.7472803
X      -18.0131019      3.8360863      1.3701857
P      -13.2039464     -0.5888503     -2.3419652
O      -13.3354826     -0.7802327     -3.9087385
C      -12.3945406     -0.2686747     -4.8599879
X      -12.8183556     -0.6403343     -6.2872100
X      -13.9138368     -2.4466096     -7.3330053
X      -15.8207249     -4.6221904     -6.4729834
P      -14.6677441      2.6354023     -7.2071141
O      -14.0547980      3.3321481     -8.5058487
C      -13.3327774      2.5963975     -9.4992376
X      -12.8499222      3.5166226    -10.5996799
X      -13.4147624      5.6791981    -11.2990236
X      -14.9141754      7.9883147     -9.9715098
P       -9.4525553      4.1311578     -9.0794390
O       -8.7389048      5.4247248     -9.6975907
C       -7.4281438      5.3200942    -10.2413001
X       -6.7727185      6.6892936    -10.5150663
X       -7.4909543      8.8034623    -11.2718407
X       -9.9459538      9.6977553    -11.0899002
X      -10.1506686     11.8604932    -11.2978095
P       -5.1697195      7.1593511     -7.0788973
O       -5.2359756      8.6650826     -6.5333159
C       -5.9462494      9.1149862     -5.3834269
X       -5.6368618      8.4358729     -4.0600400
X       -4.6971228      6.4479249     -3.2994708
X       -3.0955907      5.0165821     -4.7949319
X       -1.9619596      3.5934954     -3.6504535
P       -2.7374695     10.6169944     -3.0888832
O       -2.8620473     10.8748955     -1.5063197
C       -1.6888368     10.8169853     -0.7059269
X       -2.0076253     11.3712837      0.6473805
X       -3.2649283     13.1766155      1.4323072
X       -5.4852192     14.6884710      0.0188261
P       -2.9975795      8.2620477      2.6915737
O       -2.0701471      7.9273618      3.9939378
C       -2.7026067      8.1658099      5.2722044
X       -2.1170455      7.2330410      6.3216734
X       -1.3595080      5.0320234      6.1498257
X       -0.4576353      3.9153953      3.9388518
X        1.2928091      2.5915102      4.0425730
P        1.5845293      8.4870938      6.6340540
O        2.1602721      8.0613042      8.0605740
C        2.4288202      9.1110909      8.9752533
X        2.8794368      8.5086075     10.2820807
X        2.6544653      6.4577765     11.3494076
X        2.4772239      4.4242813      9.7036304
X        2.9935923      2.3210922     10.8511040
P        6.6639341      8.1875008      9.5847139
O        7.2728477      6.9887056     10.4314051
C        8.3764559      6.2720531      9.8840544
X        8.0787492      5.8293992      8.4597968
X        8.8133732      6.4612435      6.3293975
X       11.3463126      7.8651257      5.5396551
P        9.9979161      2.5693358      8.6473517
O       10.0987879      1.9392449      7.1803239
C       11.2799871      1.3353403      6.6422940
X       11.1148844      0.9820300      5.1702102
X       11.8463186      1.9025518      3.1328161
X       14.1658434      3.7498126      2.6196581
P       13.2666134     -2.1243911      5.2824020
O       13.9496379     -2.2931644      3.8515692
C       13.3341465     -2.9837137      2.7588800
X       14.1531416     -2.7981204      1.4902931
X       15.6863442     -1.2059876      0.7192656
X       17.1923295      0.2090051      2.3378527
X       18.8605433      1.4912385      1.0812149
