   142
  Step:           25 Total energy:    2036.3947373517697      Temperature:   0.69437212708140472     
O       -3.5443327     -6.0401693    -15.4740746
C       -2.4065344     -5.4402824    -14.8047940
X       -1.2091138     -5.3517910    -15.7329884
X       -0.6855786     -6.3366292    -17.7672256
X       -2.7397659     -7.0051745    -19.2983788
X       -1.8864125     -7.4052893    -21.5940934
P       -1.7093191     -1.7178858    -16.9138569
O       -0.7602128     -1.2782260    -18.0681579
C        0.6629307     -1.4896495    -18.0801447
X        1.3991398     -0.4013666    -17.3265482
X        0.8121416      1.7912572    -16.7317885
X       -1.5903033      2.7874587    -16.2488996
X       -1.6141883      5.2245697    -16.0390087
P        1.8765980     -1.9920537    -13.8651573
O        2.8549255     -1.1999507    -12.9080496
C        4.2871452     -1.3388277    -12.9312727
X        4.9053941     -0.8135080    -11.6382114
X        4.4312458      0.7764625    -10.0040298
X        2.0305544      1.3408958     -9.0839859
X        2.1329319      2.0616792     -6.7552017
P        5.1041600     -4.0340617     -9.6050944
O        5.9525992     -3.8042789     -8.2877267
C        6.9395889     -4.7319011     -7.8067580
X        7.2934543     -4.3692847     -6.3701561
X        6.5686918     -5.1647101     -4.3125337
X        5.6066283     -7.6127968     -4.1751037
X        6.1591918     -8.6726138     -2.0209186
P       10.6794392     -6.0265529     -6.3197302
O       11.3741634     -5.8795155     -4.9109769
C       12.7647796     -5.9049320     -4.6851088
X       13.0993282     -5.8034319     -3.1971220
X       11.8984331     -4.9785231     -1.3449456
X        8.9446753     -4.4402253     -0.7987585
P       13.3235258     -9.5506787     -2.5977291
O       13.2642232     -9.8404518     -1.0296300
C       12.5307615    -10.9069263     -0.3556463
X       12.8222949    -10.9726678      1.1285878
X       14.4746202    -10.0254059      2.5099791
X       15.7416098     -7.8048033      1.7938850
X       16.5804287     -6.7253737      3.8244583
P        9.8220151     -8.9575257      2.3157182
O        9.7220717     -8.9487106      3.9097885
C        9.2757228    -10.0879424      4.6387036
X        9.0045904     -9.7052818      6.1174882
X        9.1278185     -7.7157916      7.3808632
X        8.5984070     -5.4230314      6.2412362
X        7.7616295     -3.6881788      7.7279550
P        5.1921467     -9.5209206      5.8019784
O        4.5584993     -8.6806542      6.9776218
C        3.9785972     -9.3016176      8.1388749
X        3.3124376     -8.2883905      9.0612075
X        3.2124214     -5.9415298      9.1461670
X        3.6843481     -3.8184776      7.0804864
P       -0.2070800     -8.5281935      7.4751595
O       -1.1504904     -7.3534501      7.9309919
C       -2.1915856     -7.3636915      8.9230330
X       -2.8110009     -5.9578967      9.0916210
X       -2.1841345     -3.8289209      8.3719736
X       -0.8484642     -2.7424449      5.8508134
P       -5.9794652     -6.3391464      6.9963452
O       -6.9370774     -5.0746716      7.0786008
C       -8.3395512     -5.2379588      7.2654696
X       -9.1219433     -3.9323493      7.1497601
X       -8.6841180     -1.7628910      7.9030375
X       -6.1253381     -0.2232396      8.4029148
P       -9.8539541     -4.2199647      3.3134096
O      -11.3651775     -3.8446820      2.9274062
C      -11.8708630     -2.5127020      2.7468887
X      -13.2368429     -2.6297818      2.1016821
X      -14.2485862     -4.0585836      0.5633156
X      -13.5897742     -6.7785706     -0.4961839
P      -15.4227837     -2.4293182      5.2218601
O      -16.6439794     -1.3842285      5.0950798
C      -17.4937218     -1.4018203      3.9385796
X      -18.5399373     -0.3100638      4.0300387
X      -19.7027282      0.6868448      5.7918930
X      -19.1224174      0.9131309      8.7340041
P      -16.9257051      2.5875931      2.0191457
O      -17.7893959      2.9161225      0.7267322
C      -17.2492527      3.2672918     -0.5481440
X      -16.3211300      2.1744545     -1.0973579
X      -16.5815198      0.2829376     -2.4731316
X      -18.8402058     -0.2401761     -4.3621098
P      -14.2086874      4.2987967     -3.5338513
O      -13.4844308      3.4132097     -4.6151771
C      -14.1389995      2.7532456     -5.7024539
X      -14.7009550      3.7746379     -6.7235929
X      -15.3523176      6.0181948     -6.5667098
X      -14.5787492      8.1797992     -4.5138559
P      -11.5425930      4.2145085     -8.9243547
O      -11.4675078      5.6752884     -9.5532422
C      -11.1757956      5.9740130    -10.9107663
X      -10.8479792      7.4428475    -11.1382893
X      -11.6021594      9.5239886    -10.3356669
X      -12.7136167     10.1010726     -8.0500582
X      -12.8154447     12.1955341     -7.5502984
P       -7.1912560      7.1571629     -9.9947700
O       -6.8240028      8.0401154     -8.7094023
C       -7.2923594      7.7452392     -7.3948127
X       -6.5446076      6.6059041     -6.7117581
X       -5.2317835      4.8087256     -7.4556726
X       -3.9396512      4.7819139     -9.7483528
X       -1.8339644      4.1313617     -9.5864747
P       -4.0702929      8.6924153     -4.7259028
O       -3.8946350      8.2243925     -3.2421694
C       -3.7756904      9.1860417     -2.1927291
X       -3.9739475      8.5016441     -0.8440935
X       -5.0951749      6.6168970     -0.0525744
X       -5.7408546      3.9420136     -1.2600752
P       -0.3276051      7.6780903      0.0851277
O       -0.1477191      6.5904492      1.2570299
C       -0.9657971      6.6118665      2.4395462
X       -0.4557353      5.6009793      3.4394466
X        0.9802376      3.7562176      3.3286373
X        2.8062284      3.4907131      1.4198749
X        4.6118258      2.3977536      1.9080576
P        1.9668686      7.7528520      5.6070921
O        2.1043647      7.0830909      7.0487438
C        1.9753608      7.8004829      8.2518874
X        2.1523740      6.9575981      9.4918348
X        2.1324163      4.6643173      9.8368118
X        2.8589691      3.1933955      7.7801248
X        3.0372129      0.8079080      8.3229863
P        5.8731161      7.8211842      9.9603026
O        6.6091464      6.7952914     10.8881077
C        7.8020342      7.0181915     11.6401277
X        8.9351105      7.4015723     10.7480768
X        9.5070932      9.3215100      9.5127686
X        8.5259206     12.1341462      9.7645331
P       11.7281265      6.3144554     13.0543718
O       12.8426770      5.4463542     12.2899323
C       13.0173940      4.0603141     12.4631342
X       14.0034806      3.5507208     11.4132363
X       16.3400517      3.3637825     11.2675089
X       18.3086165      3.2013645     13.5319928
P       12.9364547     -0.0912715     11.7183707
O       13.6401760     -1.0234534     10.6472184
C       12.9724691     -1.7007662      9.6190319
X       13.9223110     -2.3672601      8.6618976
X       16.1177887     -1.9355011      7.9318557
X       17.8356571     -0.5857074      9.3729662
X       20.1017608     -1.1715210      8.6586443
   142
  Step:           50 Total energy:    2035.7202743827586      Temperature:   0.59524558049897691     
O       -3.5373694     -5.9678384    -15.4949647
C       -2.3613128     -5.5295926    -14.7860668
X       -1.2127976     -5.3714266    -15.7889091
X       -0.7124955     -6.3425009    -17.8325653
X       -2.7528391     -7.0218716    -19.3109167
X       -1.8914192     -7.4486925    -21.5445070
P       -1.7045639     -1.6882212    -16.8736381
O       -0.7192736     -1.2932794    -18.0928135
C        0.7252048     -1.5671248    -18.0427912
X        1.3880526     -0.4003306    -17.3340820
X        0.7390767      1.7927119    -16.7561926
X       -1.6100332      2.7923203    -16.2315215
X       -1.6326420      5.2492670    -16.0034473
P        1.8567234     -1.9874204    -13.8507134
O        2.8687063     -1.1526035    -12.9198120
C        4.2925695     -1.3924736    -12.9134807
X        4.9884449     -0.8408195    -11.6926401
X        4.3782953      0.6523651     -9.9829010
X        1.9941116      1.3472305     -9.0878120
X        2.1069153      2.0704169     -6.7512852
P        5.0995476     -3.9711979     -9.5763126
O        5.9799149     -3.7892054     -8.2727435
C        6.9152322     -4.7316972     -7.7601178
X        7.2442178     -4.3563792     -6.3639975
X        6.5173020     -5.1352701     -4.3009769
X        5.6241885     -7.6113360     -4.1652806
X        6.1825975     -8.6824599     -2.0474980
P       10.6451847     -6.0578852     -6.3571425
O       11.3923227     -5.8091769     -4.9412340
C       12.7901882     -5.9384601     -4.6773345
X       13.0401844     -5.8020936     -3.2094229
X       11.9393172     -4.9344286     -1.3136100
X        8.9567545     -4.4251400     -0.7977590
P       13.3272049     -9.5516119     -2.5633067
O       13.2348249     -9.8401538     -1.0101359
C       12.5347111    -10.9572493     -0.3849989
X       12.8655177    -10.9489298      1.1075403
X       14.5531960    -10.0631634      2.4311152
X       15.7027793     -7.8249836      1.7908257
X       16.5832049     -6.7657751      3.8088433
P        9.8028448     -8.9758519      2.3389112
O        9.6861144     -8.9043983      3.9279396
C        9.3676670    -10.0662587      4.6696149
X        8.9938459     -9.6744925      6.0729012
X        8.9958558     -7.7500918      7.3697073
X        8.5961415     -5.4200637      6.2202938
X        7.7832340     -3.6399834      7.7159548
P        5.1792143     -9.5314668      5.7921093
O        4.5351770     -8.7559077      7.0209173
C        4.0012993     -9.3923942      8.2024100
X        3.3179154     -8.3512178      9.0486283
X        3.2497541     -6.0072227      9.1128338
X        3.6679686     -3.8300069      7.0730518
P       -0.1917111     -8.5643419      7.5055610
O       -1.1537804     -7.3091171      7.9178875
C       -2.2263306     -7.3867134      8.8164156
X       -2.7388532     -5.9920215      9.1287271
X       -2.1739088     -3.8565137      8.3780220
X       -0.8298734     -2.7442140      5.8250566
P       -5.9792184     -6.3219278      7.0109551
O       -7.0079016     -5.0767774      7.1056751
C       -8.4163898     -5.2538882      7.1945150
X       -9.1265988     -3.9305344      7.0883024
X       -8.6704977     -1.7350124      7.8504311
X       -6.1391177     -0.2334804      8.4034203
P       -9.7796182     -4.2113585      3.2893196
O      -11.3052565     -3.9161003      2.9296394
C      -11.8335475     -2.5868706      2.7496286
X      -13.2145138     -2.6031769      2.1397157
X      -14.2400507     -4.0023182      0.5638323
X      -13.5899643     -6.7691765     -0.4667873
P      -15.4759336     -2.4041456      5.2680802
O      -16.6595668     -1.3740699      5.0805828
C      -17.4800315     -1.3515937      3.9132945
X      -18.5971719     -0.3218597      4.0195788
X      -19.7181175      0.7558704      5.8070394
X      -19.1296803      0.8993972      8.7477563
P      -16.9325978      2.5604479      2.0663974
O      -17.7592517      2.8902990      0.7003238
C      -17.1906507      3.2247260     -0.5622991
X      -16.2592052      2.1720042     -1.1110415
X      -16.5553723      0.2541577     -2.4133278
X      -18.8331075     -0.2308616     -4.3323066
P      -14.2177815      4.3265518     -3.4883346
O      -13.4835529      3.3738901     -4.5784104
C      -14.1033879      2.7722635     -5.7533484
X      -14.6825766      3.7943453     -6.7239117
X      -15.3564511      6.0056769     -6.5055445
X      -14.5555332      8.2033828     -4.5235903
P      -11.5450222      4.1636194     -8.9333002
O      -11.4814236      5.6516136     -9.5234863
C      -11.1311115      5.9609385    -10.8858692
X      -10.8394047      7.4403225    -11.1051089
X      -11.5678947      9.5689643    -10.3980439
X      -12.6651051     10.0937619     -8.0435366
X      -12.8279716     12.2369562     -7.5255125
P       -7.2205103      7.1249104     -9.9475363
O       -6.8395257      8.0822704     -8.7211123
C       -7.2630915      7.8071055     -7.3986796
X       -6.5428133      6.6412585     -6.7368614
X       -5.1791033      4.8781065     -7.4085384
X       -3.9073321      4.7627191     -9.7323961
X       -1.8631497      4.1461884     -9.5672844
P       -4.0351563      8.6805952     -4.7307756
O       -3.9027115      8.1502726     -3.2246396
C       -3.7801910      9.0953894     -2.1500537
X       -4.0030802      8.4892682     -0.8089799
X       -5.0821969      6.5584264     -0.0087576
X       -5.7464266      3.9271428     -1.2758235
P       -0.3157035      7.6506161      0.0828086
O       -0.1361072      6.6303506      1.2781069
C       -0.9043908      6.6250130      2.4963415
X       -0.4347409      5.5515128      3.4815219
X        0.9732319      3.6741118      3.3404766
X        2.8033471      3.5232110      1.4807475
X        4.6221255      2.3490237      1.8913443
P        1.9171398      7.7614532      5.5955634
O        2.1298754      7.0969484      7.0430981
C        1.9248416      7.8465621      8.2642328
X        2.1527449      6.9162128      9.4861581
X        2.1298379      4.5987721      9.8635792
X        2.8480957      3.1967822      7.7757833
X        3.0273324      0.8343443      8.2949076
P        5.8488177      7.8781373      9.9283492
O        6.5716849      6.7182795     10.8237539
C        7.7229138      6.9953117     11.6513736
X        8.8932257      7.4320206     10.8150659
X        9.4911786      9.3148279      9.5349213
X        8.5331598     12.1645631      9.7421262
P       11.7625060      6.2889550     13.0803671
O       12.8100879      5.4721042     12.2526922
C       13.0215687      4.0380182     12.3823111
X       14.0313515      3.6054203     11.3317094
X       16.3447852      3.4842207     11.2616666
X       18.3297609      3.2039450     13.5290659
P       12.9392427     -0.0827399     11.6671563
O       13.7458038     -1.0101454     10.6235328
C       12.9844465     -1.6510335      9.5897054
X       13.9835278     -2.3574482      8.6602361
X       16.1406210     -1.9388401      7.8691501
X       17.8294525     -0.6056491      9.3443395
X       20.0918252     -1.1315501      8.6104327
   142
  Step:           75 Total energy:    2033.9296603531316      Temperature:   0.57422776492020877     
O       -3.5122838     -5.8910619    -15.4844994
C       -2.3442239     -5.5238775    -14.7999679
X       -1.2057118     -5.3766480    -15.7925737
X       -0.7130815     -6.3406725    -17.8749942
X       -2.7632242     -7.0407108    -19.3196170
X       -1.9004020     -7.4973293    -21.5244928
P       -1.6799801     -1.6727908    -16.8502234
O       -0.7021359     -1.4499084    -18.0576639
C        0.7103171     -1.5485248    -17.9806500
X        1.3585419     -0.3881577    -17.2939155
X        0.7513799      1.8584806    -16.8308958
X       -1.6385039      2.8080851    -16.2065793
X       -1.6404178      5.2496479    -15.9645473
P        1.8422070     -1.9682120    -13.8221694
O        2.8818009     -1.1395074    -12.9439200
C        4.2737271     -1.4433409    -12.9329455
X        4.9842666     -0.8180622    -11.7281686
X        4.3331251      0.6324785     -9.9729278
X        1.9738620      1.3378078     -9.0991976
X        2.0817954      2.0842312     -6.7484331
P        5.0907213     -3.9394697     -9.5635603
O        5.9361336     -3.6738789     -8.2406143
C        6.8656883     -4.6769040     -7.8129267
X        7.2352966     -4.4060296     -6.3551141
X        6.4363207     -5.1349716     -4.2451634
X        5.6373705     -7.6052891     -4.1675673
X        6.2246462     -8.6893812     -2.0587617
P       10.6599516     -6.0717184     -6.3605832
O       11.3300073     -5.7783070     -4.9747747
C       12.7646202     -5.8702658     -4.7209708
X       13.0440994     -5.8138186     -3.2180598
X       11.9375943     -4.9096174     -1.3664825
X        8.9774048     -4.4059940     -0.7911003
P       13.2949928     -9.5530150     -2.5270695
O       13.2295369     -9.8358815     -0.9607579
C       12.5706553    -10.9653958     -0.4350214
X       12.8447662    -10.9705928      1.0664972
X       14.5933500    -10.1664857      2.4000120
X       15.6768210     -7.8398858      1.7804003
X       16.5943306     -6.8011280      3.7972713
P        9.7860278     -8.9834949      2.3323415
O        9.6925369     -8.8789903      3.9035779
C        9.3977993    -10.0417597      4.7151230
X        8.9717960     -9.6881513      6.1437483
X        8.9022142     -7.7122213      7.3944339
X        8.5886192     -5.3923068      6.1959420
X        7.8143284     -3.6168500      7.7024695
P        5.1657190     -9.5448577      5.7730170
O        4.5128959     -8.8134434      7.0426485
C        3.9902471     -9.4558899      8.2162185
X        3.3141802     -8.3809028      9.0467280
X        3.2350468     -6.0420993      9.0656870
X        3.6570029     -3.8462276      7.0663360
P       -0.2093918     -8.5875562      7.5506089
O       -1.0781153     -7.3014840      7.8849230
C       -2.1803328     -7.4137616      8.7763976
X       -2.7267684     -6.0020781      9.0819026
X       -2.1638973     -3.8499335      8.3319726
X       -0.8213294     -2.7524952      5.8056858
P       -5.9815847     -6.3038995      7.0220670
O       -6.9932216     -5.1059924      7.1408535
C       -8.4171509     -5.2778168      7.1725466
X       -9.1382411     -3.9459363      7.0416154
X       -8.6749853     -1.7076155      7.7182335
X       -6.1489854     -0.2408907      8.4070711
P       -9.7159435     -4.1890799      3.2929994
O      -11.2521440     -3.9453218      2.9226922
C      -11.8047536     -2.6254713      2.8376631
X      -13.1778225     -2.6340255      2.1460863
X      -14.2532819     -3.9718161      0.5128672
X      -13.5914921     -6.7518027     -0.4344948
P      -15.5187462     -2.3924615      5.3085610
O      -16.6913449     -1.3105242      5.0493172
C      -17.5308828     -1.3134673      3.8797894
X      -18.6140630     -0.2720623      4.0132615
X      -19.7425469      0.7225681      5.8213917
X      -19.1421298      0.8853763      8.7555677
P      -16.9543614      2.5248780      2.0752141
O      -17.6943348      2.8428955      0.7114751
C      -17.0798247      3.2518234     -0.5098265
X      -16.2169436      2.1344443     -1.0808291
X      -16.5613454      0.2456133     -2.4064404
X      -18.8210696     -0.2227806     -4.3026730
P      -14.2181207      4.3106729     -3.5028570
O      -13.5135799      3.3995300     -4.5848241
C      -14.0681054      2.7791801     -5.7367282
X      -14.6106550      3.8191042     -6.6585511
X      -15.3806996      6.0330846     -6.4866759
X      -14.5343198      8.2237285     -4.5296369
P      -11.5802951      4.1459897     -8.9436993
O      -11.4998898      5.6473338     -9.4737798
C      -11.1969335      5.9709478    -10.8576379
X      -10.7790246      7.4202209    -11.1170019
X      -11.5204652      9.4812156    -10.3519034
X      -12.6197068     10.1287860     -8.0385627
X      -12.8424207     12.2342360     -7.4989400
P       -7.1931491      7.1006900     -9.9082382
O       -6.8783691      8.1163244     -8.7435036
C       -7.2888158      7.8847566     -7.3870973
X       -6.5380707      6.6799759     -6.7414548
X       -5.1926822      4.9008872     -7.4335958
X       -3.9155293      4.7860857     -9.7063958
X       -1.8446941      4.1360410     -9.5548978
P       -3.9915429      8.6652618     -4.7353770
O       -3.9226335      8.1126397     -3.2337332
C       -3.7592242      9.0357261     -2.1263987
X       -3.9837635      8.4375545     -0.7422696
X       -5.1011263      6.5024777      0.0777799
X       -5.7444337      3.9117932     -1.2916814
P       -0.3158013      7.6380014      0.0607120
O       -0.1522314      6.6204176      1.3105676
C       -0.8493989      6.6608952      2.5596026
X       -0.4042688      5.5494157      3.5032038
X        0.9738473      3.6313615      3.3975266
X        2.8342877      3.5380193      1.5343880
X        4.6075392      2.3155556      1.8837908
P        1.8453721      7.7537009      5.5929638
O        2.1813832      7.1667674      7.0294886
C        1.8088338      7.8002833      8.2755305
X        2.1843135      6.9310897      9.4447698
X        2.1382381      4.6400329      9.8497891
X        2.8411461      3.2243762      7.7666915
X        3.0232263      0.8276059      8.2709294
P        5.8276717      7.8710936      9.9341446
O        6.5520449      6.7531813     10.7324590
C        7.6129880      6.9913767     11.6441409
X        8.8547501      7.4372680     10.8412505
X        9.4423210      9.3360127      9.5941693
X        8.5389492     12.1952240      9.7193037
P       11.7672954      6.2730062     13.1107680
O       12.8362590      5.5171757     12.1893986
C       13.0262400      4.0784049     12.3042113
X       14.0411922      3.5942757     11.3070562
X       16.3676693      3.5220215     11.2756529
X       18.3475766      3.2043124     13.5239778
P       12.9732569     -0.0637450     11.5998361
O       13.7690972     -0.9732436     10.6271462
C       13.0741500     -1.6141501      9.5413693
X       14.0064862     -2.3953899      8.6323626
X       16.1128583     -1.9478969      7.8160352
X       17.8190533     -0.6082041      9.3161588
X       20.1027475     -1.0952121      8.5627083
   142
  Step:          100 Total energy:    2036.8993496485793      Temperature:   0.63155521572478179     
O       -3.5322787     -5.8217898    -15.4563553
C       -2.3267681     -5.4438663    -14.7927188
X       -1.1791167     -5.3595709    -15.7467852
X       -0.7316680     -6.3342844    -17.8380655
X       -2.7832379     -7.0561290    -19.2997020
X       -1.9033215     -7.5561173    -21.5636284
P       -1.6686450     -1.7310203    -16.7982861
O       -0.7040465     -1.5038462    -18.0925006
C        0.7239696     -1.5365851    -17.9391642
X        1.3191454     -0.3135932    -17.2314690
X        0.6959735      1.9177317    -16.8633474
X       -1.6446464      2.8104488    -16.1925347
X       -1.6469480      5.2403244    -15.9200467
P        1.8281396     -1.9433443    -13.7996832
O        2.9007671     -1.1461820    -12.9454110
C        4.2867833     -1.3992564    -12.9837971
X        4.9096341     -0.8375145    -11.7225278
X        4.3354863      0.7250584    -10.0440782
X        1.9678354      1.3223151     -9.0877052
X        2.0643226      2.0925200     -6.7726426
P        5.0649430     -3.9002527     -9.5557133
O        5.8754310     -3.6351319     -8.2176548
C        6.8101255     -4.6095835     -7.7907319
X        7.2076771     -4.4006168     -6.3460996
X        6.4158582     -5.1272494     -4.2722983
X        5.6391170     -7.6108314     -4.1743179
X        6.2761175     -8.6896504     -2.0621188
P       10.6560693     -6.0641326     -6.3604453
O       11.3241339     -5.8065360     -4.9367788
C       12.7481135     -5.8360517     -4.7484828
X       13.0545251     -5.7486414     -3.2691386
X       11.9544637     -4.9390965     -1.3781258
X        8.9990546     -4.3871405     -0.7794109
P       13.2529337     -9.5470398     -2.5200925
O       13.2213608     -9.8336236     -0.9469967
C       12.5320475    -10.9201577     -0.4076378
X       12.8457628    -11.0548515      1.0643270
X       14.5641989    -10.1682873      2.3638436
X       15.6519337     -7.8704549      1.7679049
X       16.6098707     -6.8353587      3.7801655
P        9.7763924     -8.9876136      2.3000333
O        9.7184675     -8.9177528      3.9250459
C        9.3563705    -10.0432588      4.7754645
X        8.9642242     -9.6423160      6.1991075
X        8.8802844     -7.6281030      7.4304322
X        8.5771093     -5.3658985      6.1799447
X        7.8450257     -3.6030376      7.7000427
P        5.1544667     -9.5722055      5.7688039
O        4.4875437     -8.8426970      7.0053544
C        3.9559434     -9.4637901      8.1629920
X        3.3010985     -8.4222198      9.0799435
X        3.1805899     -6.0666794      9.0695520
X        3.6489311     -3.8624810      7.0528239
P       -0.2071761     -8.6324670      7.5756868
O       -1.0301183     -7.3252963      7.8714499
C       -2.1237686     -7.3539693      8.8188079
X       -2.7441874     -5.9882882      8.9775218
X       -2.1720767     -3.8301591      8.2879952
X       -0.8164893     -2.7615583      5.7853081
P       -5.9685435     -6.3372131      7.0177931
O       -6.9553083     -5.0695354      7.1824219
C       -8.4011106     -5.2573257      7.2170166
X       -9.1332292     -3.9590620      7.0458290
X       -8.6500021     -1.7346582      7.5687437
X       -6.1660558     -0.2529566      8.4068458
P       -9.6701663     -4.1566528      3.2945670
O      -11.2180359     -3.9548900      2.9028812
C      -11.8341420     -2.6728735      2.8806672
X      -13.1965615     -2.6907264      2.2111665
X      -14.1618010     -3.9557020      0.5040182
X      -13.5929981     -6.7387155     -0.4050367
P      -15.5503867     -2.3470496      5.2867871
O      -16.6959167     -1.2751292      5.0326437
C      -17.5507794     -1.3022705      3.8855801
X      -18.6387243     -0.2457615      4.0212353
X      -19.8097072      0.6817291      5.8231248
X      -19.1519112      0.8759053      8.7624198
P      -16.9385657      2.4904011      2.0773967
O      -17.7045169      2.8238373      0.7190767
C      -16.9752992      3.2705913     -0.4542897
X      -16.1179089      2.1310331     -1.0195960
X      -16.5393915      0.2571530     -2.3739211
X      -18.8209785     -0.2159953     -4.2798283
P      -14.2418511      4.2980580     -3.5317056
O      -13.3833285      3.4105626     -4.5612031
C      -14.0516658      2.7763316     -5.6749491
X      -14.6261302      3.8068016     -6.6558746
X      -15.3457338      6.0564139     -6.4631022
X      -14.5120039      8.2452209     -4.5246927
P      -11.6251412      4.1721701     -8.9561350
O      -11.4887958      5.6688683     -9.4892524
C      -11.1970747      5.8751225    -10.8534618
X      -10.8172204      7.3405529    -11.0753169
X      -11.4036317      9.4925617    -10.2940510
X      -12.5832383     10.1529905     -8.0268244
X      -12.8531137     12.2235717     -7.4803074
P       -7.1397419      7.0708032     -9.8803924
O       -6.8954302      8.1566064     -8.7314789
C       -7.3018100      7.9067967     -7.3817687
X       -6.5650508      6.7559057     -6.7204304
X       -5.3032687      4.9049303     -7.4335059
X       -3.9102367      4.8288110     -9.6954554
X       -1.8129116      4.1188180     -9.5493010
P       -3.9449833      8.6416762     -4.7187002
O       -3.9184104      8.1452361     -3.2020927
C       -3.7545629      9.0145967     -2.0785953
X       -3.9606400      8.3097258     -0.7326992
X       -5.1045018      6.4548775      0.0933132
X       -5.7364923      3.8978114     -1.3086498
P       -0.3259067      7.6081934      0.0758864
O       -0.1428145      6.5894254      1.2890324
C       -0.8366673      6.6376532      2.5424879
X       -0.3965127      5.5726541      3.5389825
X        1.0179965      3.7159733      3.4430343
X        2.8610579      3.5438297      1.5657976
X        4.5881562      2.2794560      1.8895447
P        1.7949298      7.7933471      5.6089069
O        2.1965219      7.1761561      7.0128858
C        1.8069709      7.8248510      8.2266138
X        2.0900756      6.9707219      9.4346077
X        2.2088209      4.6539201      9.8625754
X        2.8386108      3.2295936      7.7500010
X        3.0211295      0.8177102      8.2432211
P        5.7875429      7.8890642      9.9104685
O        6.5806113      6.7157134     10.7113191
C        7.6109748      6.9910852     11.6641988
X        8.8084303      7.4412894     10.8353400
X        9.4161932      9.3535340      9.6650914
X        8.5476946     12.2296514      9.6927498
P       11.7488546      6.2640928     13.0848028
O       12.8557444      5.5341133     12.2084953
C       13.0110864      4.1504554     12.2647036
X       14.0530974      3.6230957     11.3004145
X       16.4216895      3.4388691     11.2553926
X       18.3591646      3.2095974     13.5193041
P       13.0056474     -0.0219138     11.5807422
O       13.7950448     -0.9941286     10.5427373
C       13.0613491     -1.6643152      9.5114273
X       14.0274300     -2.4035694      8.6176408
X       16.1742494     -2.0006372      7.7731499
X       17.8144928     -0.6102271      9.2777901
X       20.1076208     -1.0568143      8.5241091
   142
  Step:          125 Total energy:    2039.7884223178810      Temperature:   0.63603935471028084     
O       -3.5601265     -5.7502295    -15.4172168
C       -2.3443100     -5.3550399    -14.6879198
X       -1.1793520     -5.3619095    -15.6713150
X       -0.7928560     -6.3512553    -17.7658110
X       -2.7671357     -7.0799833    -19.3271985
X       -1.9333653     -7.6083557    -21.5804264
P       -1.6315478     -1.8000483    -16.7943841
O       -0.7155463     -1.4462952    -17.9923483
C        0.6851287     -1.4975242    -17.9590812
X        1.2990730     -0.2911761    -17.2274908
X        0.7368891      1.9561876    -16.8361774
X       -1.6697210      2.8048342    -16.1849302
X       -1.6532645      5.2392512    -15.8738627
P        1.8048076     -1.9220090    -13.7933593
O        2.8645908     -1.1318493    -12.9108533
C        4.2883721     -1.3664575    -12.9622431
X        4.9155911     -0.7697556    -11.7321221
X        4.3241217      0.8360085    -10.1531551
X        1.9611506      1.2992611     -9.0964575
X        2.0489812      2.1002130     -6.7885786
P        5.0194412     -3.8728221     -9.5609507
O        5.8086921     -3.6655134     -8.1940990
C        6.8142438     -4.5892352     -7.7753604
X        7.1720385     -4.2903517     -6.3461479
X        6.4620240     -5.1256263     -4.3073875
X        5.6373022     -7.6433535     -4.1680842
X        6.3225973     -8.6912571     -2.0741437
P       10.6192769     -6.0301804     -6.3500677
O       11.3618108     -5.9047786     -4.9204018
C       12.7495413     -5.8073048     -4.7711422
X       13.0927184     -5.7388643     -3.2976115
X       11.9658275     -4.9818951     -1.3813222
X        9.0190524     -4.3713610     -0.7630533
P       13.2023811     -9.5044400     -2.5405221
O       13.2057429     -9.8421061     -0.9738110
C       12.4521543    -10.9437753     -0.4139827
X       12.7887466    -11.0758795      1.0757506
X       14.5195335    -10.1856541      2.4177077
X       15.6377464     -7.8984339      1.7697996
X       16.6222676     -6.8719584      3.7472931
P        9.8013869     -9.0251332      2.3257885
O        9.7052306     -8.9897189      3.9041669
C        9.3259557    -10.0221108      4.7998821
X        8.9394238     -9.5838975      6.1848073
X        8.9420960     -7.5988083      7.4518308
X        8.5543722     -5.3496485      6.1525762
X        7.8768001     -3.5805789      7.7066058
P        5.1684397     -9.6157423      5.7727742
O        4.4268538     -8.8031974      6.9691380
C        3.9285271     -9.4446652      8.1434399
X        3.2626939     -8.4005705      9.0263645
X        3.1911671     -6.0636168      9.0700364
X        3.6344638     -3.8924697      7.0437178
P       -0.1925137     -8.6901481      7.5863362
O       -1.0487460     -7.3506159      7.8623015
C       -2.1500266     -7.3262628      8.8027366
X       -2.7033096     -5.9667875      9.0021157
X       -2.2496513     -3.7616684      8.2768513
X       -0.8058934     -2.7645096      5.7550239
P       -5.9830640     -6.3696292      7.0141627
O       -6.9274544     -5.1198866      7.1990158
C       -8.3480394     -5.2796099      7.2910964
X       -9.0811175     -3.9617136      7.0681239
X       -8.6905829     -1.7086077      7.4929670
X       -6.1786945     -0.2685927      8.4022629
P       -9.6506207     -4.1286345      3.2773210
O      -11.1780668     -3.9577922      2.8686882
C      -11.8554856     -2.7088993      3.0016897
X      -13.2045871     -2.6886301      2.2873992
X      -14.1618968     -3.9050227      0.5108054
X      -13.5882774     -6.7449432     -0.3839431
P      -15.5600684     -2.2978395      5.2543937
O      -16.7080922     -1.2128860      5.0319299
C      -17.5695417     -1.2980552      3.8995012
X      -18.7047315     -0.2812888      4.0487437
X      -19.8533467      0.6740241      5.8416415
X      -19.1599731      0.8726095      8.7642305
P      -16.9061904      2.4759090      2.0702625
O      -17.6670855      2.8506577      0.7392964
C      -16.9233336      3.2249620     -0.4299300
X      -16.0560577      2.1379641     -0.9752148
X      -16.5325822      0.3183242     -2.3556650
X      -18.8141552     -0.2070432     -4.2564243
P      -14.2353511      4.2903092     -3.5600710
O      -13.3962975      3.4241061     -4.5688636
C      -13.9673893      2.7930458     -5.6855087
X      -14.6635013      3.7795674     -6.5812275
X      -15.2815973      6.0321936     -6.4500434
X      -14.4906051      8.2716930     -4.5166295
P      -11.6568956      4.1847078     -8.9558529
O      -11.5119458      5.6641718     -9.5011762
C      -11.2202510      5.9003288    -10.8543126
X      -10.7586357      7.3202148    -11.0743677
X      -11.3432007      9.4468602    -10.2412311
X      -12.5508842     10.1274211     -8.0178321
X      -12.8634469     12.2525789     -7.4562079
P       -7.1119991      7.0594480     -9.8509315
O       -6.8524079      8.1405766     -8.7020681
C       -7.2613197      7.9687251     -7.3453157
X       -6.6229586      6.7603354     -6.7284024
X       -5.3340488      4.9576197     -7.5168006
X       -3.8586117      4.8609571     -9.6772529
X       -1.8406358      4.1241947     -9.5455129
P       -3.8963095      8.6208155     -4.6876335
O       -3.8879573      8.1151390     -3.1615397
C       -3.7667962      8.9980413     -2.0472941
X       -3.9543291      8.2882682     -0.7049580
X       -5.0876151      6.4450746      0.1284771
X       -5.7215633      3.8690394     -1.3317078
P       -0.3144272      7.5687587      0.1114743
O       -0.1225146      6.5186417      1.3002509
C       -0.9269969      6.6153075      2.4915817
X       -0.4222541      5.5925138      3.5200476
X        1.1054822      3.8178150      3.5070527
X        2.8649679      3.5543244      1.5671962
X        4.5793577      2.2341872      1.9084162
P        1.7786010      7.8747232      5.6202482
O        2.1617496      7.1509117      7.0087853
C        1.8266159      7.8523565      8.2113317
X        2.0364118      6.9977637      9.4521686
X        2.2452431      4.6797314      9.8060249
X        2.8482862      3.2111243      7.7384101
X        3.0083275      0.8324154      8.2140879
P        5.7696475      7.8695204      9.9018691
O        6.5073614      6.7389352     10.7217757
C        7.6061104      6.9647824     11.6009207
X        8.8189994      7.4327795     10.8570937
X        9.4149046      9.3566950      9.6585450
X        8.5564889     12.2714770      9.6675943
P       11.7019684      6.2922707     13.0400344
O       12.8841669      5.5529727     12.2073690
C       13.0874111      4.1629426     12.2839145
X       14.0755268      3.6413622     11.2454344
X       16.4220700      3.3280324     11.2504005
X       18.3676288      3.2144062     13.5193306
P       13.0613345     -0.0193478     11.5570157
O       13.7536374     -0.9372399     10.4820016
C       13.0651745     -1.7141418      9.5263297
X       14.0315798     -2.4463669      8.5948403
X       16.2167256     -2.0469555      7.7996827
X       17.8243916     -0.6189401      9.2333667
X       20.1052623     -1.0136735      8.5006948
   142
  Step:          150 Total energy:    2038.4603282573530      Temperature:   0.63159868202032698     
O       -3.5725750     -5.6776422    -15.3227003
C       -2.3706883     -5.3658050    -14.6177886
X       -1.2255757     -5.3842567    -15.6035640
X       -0.8483462     -6.4055250    -17.6607631
X       -2.7307364     -7.0988062    -19.3698260
X       -1.9714232     -7.6609545    -21.5870590
P       -1.6462611     -1.8257713    -16.7564250
O       -0.7296946     -1.3622097    -18.0142252
C        0.7061308     -1.4349115    -18.0074920
X        1.3349672     -0.2615201    -17.2543270
X        0.7216687      1.9090768    -16.7489025
X       -1.6892824      2.8027946    -16.1895999
X       -1.6689265      5.2329681    -15.8286643
P        1.7915813     -1.9092589    -13.7927341
O        2.8042604     -1.1119343    -12.8714215
C        4.2311958     -1.3612466    -12.9207790
X        4.9584358     -0.6414736    -11.7631740
X        4.3629702      0.9607413    -10.1561655
X        1.9478511      1.2760068     -9.1229245
X        2.0407775      2.1077810     -6.7967675
P        4.9622501     -3.8645568     -9.5709015
O        5.7216167     -3.6653235     -8.1995069
C        6.8286799     -4.5024244     -7.8037637
X        7.1940009     -4.2387905     -6.3205270
X        6.5030035     -5.1957819     -4.3118433
X        5.6406214     -7.6535845     -4.1661580
X        6.3665707     -8.6999253     -2.0761043
P       10.5798247     -5.9783188     -6.3326242
O       11.3436594     -5.9888581     -4.9422030
C       12.7439857     -5.8031061     -4.7728318
X       13.1094212     -5.7496772     -3.2740925
X       11.9512057     -4.9731591     -1.3849332
X        9.0423841     -4.3595424     -0.7476124
P       13.1498393     -9.4778831     -2.5653447
O       13.1431038     -9.8497551     -1.0247715
C       12.4469087    -10.9820124     -0.4065419
X       12.7373749    -11.0178446      1.0618497
X       14.4207375    -10.1789274      2.4253729
X       15.6115660     -7.9497132      1.7587576
X       16.6369979     -6.9027679      3.7246179
P        9.8282155     -9.0862566      2.3506677
O        9.7063298     -8.9355445      3.9534390
C        9.2977138    -10.0471660      4.7760922
X        8.9289910     -9.5764184      6.1934222
X        9.0334605     -7.5555794      7.3850137
X        8.5205111     -5.3325063      6.1289074
X        7.9132655     -3.5617749      7.7126326
P        5.1577371     -9.6408432      5.7898609
O        4.4230600     -8.8026599      6.8838335
C        3.9431712     -9.3905618      8.0895870
X        3.2647569     -8.3652788      8.9828848
X        3.1803169     -6.0317068      9.1239207
X        3.6230788     -3.9210264      7.0316535
P       -0.2281248     -8.7210554      7.5851640
O       -1.0781065     -7.4201397      7.8171116
C       -2.1377833     -7.3218073      8.7899616
X       -2.7137557     -5.9100901      9.0451364
X       -2.2399940     -3.7508856      8.2213733
X       -0.7993371     -2.7705200      5.7273581
P       -5.9676199     -6.4140446      7.0186715
O       -6.9271126     -5.1453043      7.1905786
C       -8.3288777     -5.2889828      7.3597787
X       -9.0421765     -3.9383285      7.0561278
X       -8.6855397     -1.6800884      7.5328453
X       -6.1927962     -0.2846577      8.3943562
P       -9.6255492     -4.1213723      3.2470470
O      -11.1836350     -3.9558765      2.8502611
C      -11.9093994     -2.7440364      3.1310462
X      -13.1641720     -2.6731190      2.2665429
X      -14.1429685     -3.9559465      0.5761165
X      -13.5851998     -6.7389440     -0.3624318
P      -15.5616984     -2.2616555      5.2592995
O      -16.7085730     -1.1614215      5.0000848
C      -17.6501576     -1.3371136      3.9557585
X      -18.7441912     -0.2868149      4.0368642
X      -19.8811843      0.6710045      5.8425820
X      -19.1714685      0.8758549      8.7660869
P      -16.8698894      2.4637588      2.1105261
O      -17.6045716      2.8815273      0.7506138
C      -16.9047053      3.3064248     -0.4135102
X      -16.0777216      2.1555235     -0.9857792
X      -16.4886297      0.2914749     -2.3810415
X      -18.8029315     -0.1945772     -4.2314762
P      -14.2346920      4.3081407     -3.5479706
O      -13.3859654      3.4062645     -4.5839875
C      -14.0082284      2.7027596     -5.6730963
X      -14.5988824      3.7684496     -6.6059225
X      -15.2728265      5.9913026     -6.3810385
X      -14.4640713      8.3012228     -4.5055948
P      -11.6998723      4.1789290     -8.9313034
O      -11.5716658      5.6795601     -9.4997854
C      -11.1466647      5.9244495    -10.8660389
X      -10.6689317      7.3539021    -11.0909323
X      -11.2907320      9.4710378    -10.2203360
X      -12.5312154     10.1337322     -7.9768033
X      -12.8559586     12.2397623     -7.4577171
P       -7.1110546      7.0468894     -9.8148527
O       -6.7696326      8.1357309     -8.7104128
C       -7.2541677      8.0224024     -7.3535909
X       -6.6333524      6.7702960     -6.6938036
X       -5.3189240      4.9674337     -7.5104174
X       -3.8473730      4.9092528     -9.6893882
X       -1.8402750      4.1149398     -9.5238698
P       -3.8671630      8.5761218     -4.6550500
O       -3.8541183      8.0563017     -3.1506831
C       -3.7649269      8.9714730     -2.0466820
X       -3.9819209      8.3411570     -0.6507966
X       -5.0430021      6.3912995      0.0888790
X       -5.6982103      3.8396424     -1.3515701
P       -0.2783427      7.5334266      0.1392121
O       -0.1695138      6.4940633      1.3287991
C       -0.9975001      6.5518213      2.4723438
X       -0.4358456      5.6226420      3.5171181
X        1.1536113      3.9120523      3.5244711
X        2.8730427      3.5477664      1.5593707
X        4.5563611      2.1926070      1.9328664
P        1.7802186      7.9343809      5.6239857
O        2.0639999      7.2310614      7.0010248
C        1.7808550      7.8745144      8.2351425
X        2.1052548      6.9928913      9.4360014
X        2.1726941      4.6967199      9.8044277
X        2.8713363      3.2215467      7.7215424
X        2.9899648      0.8254491      8.1953447
P        5.7311410      7.8585901      9.8891404
O        6.4494590      6.7171827     10.7725286
C        7.6215884      6.9304387     11.6078314
X        8.8048449      7.4596205     10.7694080
X        9.3937774      9.4500623      9.6334278
X        8.5692465     12.3009130      9.6440501
P       11.6828066      6.3097596     13.0020773
O       12.8475009      5.6040813     12.1719253
C       13.1372492      4.1897772     12.2919283
X       14.1230103      3.6294848     11.2620053
X       16.4178271      3.2724081     11.2215217
X       18.3759435      3.2155021     13.5205876
P       13.1048060     -0.0163714     11.5484937
O       13.7972752     -0.9032371     10.3952379
C       13.0565257     -1.7598140      9.5103959
X       13.9871678     -2.5273357      8.6050226
X       16.1518344     -2.1109217      7.8057713
X       17.8217596     -0.6136066      9.2059144
X       20.1292681     -0.9738943      8.4688291
   142
  Step:          175 Total energy:    2037.3429094017536      Temperature:   0.64271080811649828     
O       -3.6336898     -5.6500529    -15.1904678
C       -2.4081213     -5.4248998    -14.5583479
X       -1.2559789     -5.4127796    -15.5675017
X       -0.8470342     -6.4944570    -17.6149571
X       -2.7231114     -7.1005526    -19.3567349
X       -1.9851655     -7.7206554    -21.6343954
P       -1.6658293     -1.7601993    -16.7544514
O       -0.7390099     -1.3947310    -17.9785969
C        0.6955577     -1.3998295    -18.0443132
X        1.3741958     -0.2566493    -17.2732794
X        0.7464559      1.9171445    -16.6490276
X       -1.7001289      2.8042034    -16.1963580
X       -1.6922867      5.2196532    -15.7799699
P        1.7862568     -1.9012792    -13.7915338
O        2.7848466     -1.0967358    -12.8167424
C        4.1933636     -1.2299358    -12.9144820
X        4.9109883     -0.6004261    -11.7258370
X        4.3505294      1.0179122    -10.1419213
X        1.9564697      1.2588797     -9.1295703
X        2.0247601      2.1065016     -6.8318770
P        4.9131977     -3.8290258     -9.6018517
O        5.6676735     -3.6338751     -8.1827573
C        6.8274486     -4.3689438     -7.7962014
X        7.2069642     -4.2374615     -6.3311386
X        6.5221684     -5.2101945     -4.2932196
X        5.6441745     -7.6698805     -4.1677183
X        6.4174213     -8.7054916     -2.0773188
P       10.5792768     -5.9381422     -6.3530167
O       11.2928328     -5.9968758     -4.9089967
C       12.7400048     -5.8440857     -4.7590617
X       13.0545622     -5.7365826     -3.2840366
X       12.0218059     -4.9377826     -1.3326377
X        9.0615929     -4.3442866     -0.7320149
P       13.0977876     -9.4987160     -2.5903468
O       13.0718440     -9.8029382     -1.0339356
C       12.4234845    -10.9570368     -0.4696417
X       12.7288044    -11.0404125      1.0166119
X       14.3458035    -10.1747060      2.4933222
X       15.5998356     -7.9902591      1.7432169
X       16.6498670     -6.9373552      3.6924608
P        9.7958169     -9.0990894      2.3930389
O        9.7473956     -8.9459049      3.9646098
C        9.2826761    -10.0337194      4.7606971
X        8.9792027     -9.6059091      6.1994969
X        9.0853216     -7.5673662      7.3146662
X        8.4903833     -5.3033880      6.1031133
X        7.9498260     -3.5364884      7.7128420
P        5.1489392     -9.6838183      5.7632781
O        4.4329312     -8.7484137      6.8594855
C        3.9588055     -9.3429359      8.0870773
X        3.2968010     -8.3322481      8.9952761
X        3.1562756     -5.9955698      9.1672466
X        3.6136057     -3.9500639      7.0223220
P       -0.2875019     -8.7525084      7.5763785
O       -1.1823602     -7.3931801      7.7949171
C       -2.0854044     -7.3170008      8.8901008
X       -2.7264499     -5.9233165      8.9777288
X       -2.1838517     -3.7782739      8.2391892
X       -0.7942091     -2.7765251      5.7047306
P       -5.9376235     -6.4531180      7.0535267
O       -6.9231151     -5.1735014      7.1292450
C       -8.3184253     -5.2542758      7.3079430
X       -9.0657424     -3.9619847      7.0561192
X       -8.7433262     -1.7019899      7.6053200
X       -6.1967754     -0.2905812      8.3894807
P       -9.6177773     -4.1386797      3.2219301
O      -11.1537364     -3.9813008      2.8608959
C      -11.8464667     -2.7433800      3.1036826
X      -13.1572453     -2.6296414      2.3491581
X      -14.1164454     -3.9148985      0.6263560
X      -13.5782550     -6.7398382     -0.3462588
P      -15.5705578     -2.2275821      5.2647275
O      -16.7022920     -1.1698284      4.9380973
C      -17.7051494     -1.3797547      3.9577451
X      -18.7608838     -0.2966335      4.0591867
X      -19.9133195      0.7257352      5.8511436
X      -19.1883654      0.8795570      8.7608979
P      -16.8276705      2.4570065      2.1522186
O      -17.5596647      2.9150571      0.8042930
C      -16.9492460      3.3006460     -0.4271764
X      -16.0840948      2.2036648     -1.0453312
X      -16.5001994      0.3039352     -2.3489607
X      -18.7854454     -0.1775129     -4.2079433
P      -14.2018629      4.3157083     -3.5448583
O      -13.4407462      3.3695250     -4.5381663
C      -14.0051781      2.7144043     -5.6736172
X      -14.6208697      3.7654498     -6.5910349
X      -15.2351443      5.9801034     -6.2914351
X      -14.4361819      8.3159123     -4.4914474
P      -11.7062434      4.1992520     -8.9377450
O      -11.6219041      5.6608285     -9.5510337
C      -11.0090250      5.9609943    -10.8372127
X      -10.6815343      7.4294602    -11.0212150
X      -11.2819654      9.5381138    -10.1862964
X      -12.5127989     10.1378601     -7.9381228
X      -12.8490030     12.2170567     -7.4755834
P       -7.0971893      7.0209096     -9.7826459
O       -6.7491831      8.1451105     -8.7024896
C       -7.2062272      7.9898080     -7.3624274
X       -6.5680761      6.7996707     -6.7047803
X       -5.2860055      5.0306527     -7.4668054
X       -3.8644260      4.9635794     -9.6938519
X       -1.8259321      4.1047085     -9.4941955
P       -3.8762396      8.5133045     -4.6276020
O       -3.8207344      8.0330524     -3.0873516
C       -3.7544508      8.9969590     -2.0386008
X       -3.9619890      8.3313667     -0.6998184
X       -5.0476474      6.3683175      0.0498154
X       -5.6692995      3.8042952     -1.3639991
P       -0.2698485      7.5246391      0.1294076
O       -0.2132324      6.4832573      1.3480527
C       -1.0135314      6.5525302      2.5167150
X       -0.4470437      5.6207722      3.5655336
X        1.1683209      3.9141342      3.5007195
X        2.8940184      3.5336572      1.5446852
X        4.5206373      2.1679562      1.9594689
P        1.7565182      7.9947688      5.5877423
O        1.9981562      7.3222773      7.0410654
C        1.7722082      7.9603150      8.3069022
X        2.0912489      6.9575389      9.4246891
X        2.1154961      4.6582520      9.7709784
X        2.8979744      3.2461651      7.7091455
X        2.9699420      0.8259550      8.1806264
P        5.7373766      7.8290462      9.9093884
O        6.4443139      6.7451030     10.8001513
C        7.6209542      7.0128224     11.5465892
X        8.7749811      7.4284634     10.6782350
X        9.3728792      9.4309464      9.5541238
X        8.5750407     12.3435489      9.6238396
P       11.6875411      6.3172859     12.9637447
O       12.8140151      5.6062878     12.0999870
C       13.1459605      4.1997368     12.3242546
X       14.1612166      3.6541679     11.3254685
X       16.4427161      3.2959447     11.2150373
X       18.3787805      3.2131990     13.5250066
P       13.1555612     -0.0385655     11.5180063
O       13.7981089     -0.8894425     10.3359604
C       13.0078708     -1.8026103      9.5221807
X       13.9798682     -2.5673732      8.6359799
X       16.1221605     -2.1355881      7.8594778
X       17.8153835     -0.6249893      9.1746015
X       20.1537558     -0.9331882      8.4387274
   142
  Step:          200 Total energy:    2037.8504765966616      Temperature:   0.62422493926801492     
O       -3.7137039     -5.6549557    -15.0832358
C       -2.4158351     -5.4463024    -14.5133127
X       -1.2881099     -5.4400314    -15.5778882
X       -0.8525827     -6.5417248    -17.6202206
X       -2.7231884     -7.1020627    -19.3556606
X       -1.9943474     -7.7687470    -21.6364912
P       -1.6900227     -1.6909600    -16.7288770
O       -0.7245784     -1.4247004    -18.0003536
C        0.7193039     -1.4213496    -17.9984535
X        1.3393104     -0.2508888    -17.2348744
X        0.7264551      1.9415605    -16.5966391
X       -1.6875638      2.7993909    -16.2014258
X       -1.7174545      5.2111963    -15.7306751
P        1.7967780     -1.9074596    -13.7788067
O        2.7577653     -1.0953370    -12.8079059
C        4.1524192     -1.1165099    -12.9399661
X        4.8506798     -0.6116914    -11.6862556
X        4.3929558      1.0390961    -10.0644418
X        1.9547580      1.2414385     -9.1357132
X        2.0047441      2.1057715     -6.8712445
P        4.8923944     -3.7787396     -9.6034761
O        5.6202617     -3.5929707     -8.1857598
C        6.7937100     -4.3229325     -7.8052738
X        7.1701564     -4.1701183     -6.3565295
X        6.5110204     -5.2230114     -4.3423444
X        5.6550018     -7.6921665     -4.1630874
X        6.4706669     -8.7007239     -2.0899693
P       10.6229226     -5.9109850     -6.3841658
O       11.2003909     -5.9388542     -4.9351602
C       12.6233078     -5.8402219     -4.7032148
X       13.0118760     -5.7603730     -3.2693612
X       12.0362130     -4.8934138     -1.3396171
X        9.0885667     -4.3322099     -0.7162708
P       13.0494324     -9.5222844     -2.6168293
O       13.0064089     -9.7486832     -1.0236596
C       12.4235915    -10.9248094     -0.4914357
X       12.7000232    -11.0884489      1.0059789
X       14.3173751    -10.1871656      2.4329193
X       15.5915917     -8.0264323      1.7349976
X       16.6590495     -6.9660929      3.6488301
P        9.7319186     -9.0814911      2.3923275
O        9.8041918     -9.0398595      3.9865751
C        9.3394279    -10.1149491      4.7812957
X        8.9935839     -9.6042994      6.1576255
X        9.0605379     -7.5608486      7.2673817
X        8.4723827     -5.2758900      6.0865041
X        7.9793841     -3.5100222      7.7077954
P        5.1545302     -9.6877551      5.7432938
O        4.4605534     -8.7639505      6.8437027
C        4.0003775     -9.2902588      8.1012172
X        3.2477644     -8.3154978      8.9972548
X        3.1310968     -5.9810264      9.1837145
X        3.6009955     -3.9795872      7.0128726
P       -0.3445827     -8.7380297      7.5725210
O       -1.2203777     -7.4644649      7.7978705
C       -2.0811574     -7.3319353      8.8857199
X       -2.6631474     -5.9289776      9.0102938
X       -2.1784901     -3.8114999      8.2223378
X       -0.7878241     -2.7757423      5.6821624
P       -5.9482803     -6.4786262      7.0892058
O       -6.8888087     -5.1898549      7.0310493
C       -8.3268065     -5.2920087      7.1916373
X       -9.0954179     -3.9906098      7.0608739
X       -8.7344089     -1.7412851      7.6884979
X       -6.1984168     -0.2905888      8.3904924
P       -9.6143057     -4.1830156      3.2289153
O      -11.1717655     -3.9658611      2.8698250
C      -11.7687941     -2.6878113      3.0655172
X      -13.0968321     -2.6702657      2.3597798
X      -14.0703928     -3.9371344      0.6425817
X      -13.5737602     -6.7238140     -0.3282546
P      -15.5724439     -2.2152692      5.2811461
O      -16.7491429     -1.1607031      4.9556344
C      -17.7694159     -1.3801166      3.9472238
X      -18.7866119     -0.2698551      4.0617972
X      -19.9034251      0.7843383      5.8488452
X      -19.2081019      0.8835870      8.7564276
P      -16.7639589      2.4653948      2.1736941
O      -17.5617790      2.9127518      0.8441280
C      -16.9903079      3.3138666     -0.4056511
X      -16.1137959      2.2284987     -0.9933462
X      -16.4644237      0.3260643     -2.2953265
X      -18.7704355     -0.1588232     -4.1908118
P      -14.1846993      4.3293195     -3.5339555
O      -13.3964119      3.3272237     -4.5488272
C      -14.0182360      2.7158147     -5.6718838
X      -14.6863432      3.7546870     -6.5357160
X      -15.2763619      6.0252396     -6.3144897
X      -14.4076539      8.3316766     -4.4672631
P      -11.6816576      4.2229818     -8.9722253
O      -11.6637762      5.6955910     -9.5660646
C      -11.0502295      6.0089660    -10.8363379
X      -10.5963782      7.4654490    -10.9598791
X      -11.3194784      9.5626453    -10.2041469
X      -12.4874595     10.1065511     -7.9013849
X      -12.8463276     12.2373946     -7.4899149
P       -7.0658559      7.0142640     -9.7687515
O       -6.7247656      8.1380074     -8.6875215
C       -7.1499688      8.0484169     -7.3361552
X       -6.5182036      6.7956817     -6.7047554
X       -5.2048495      5.0057377     -7.4300556
X       -3.8259344      4.9866599     -9.6886731
X       -1.8701321      4.1129411     -9.4770140
P       -3.8597394      8.4754755     -4.5997497
O       -3.8211495      8.0322934     -3.0899506
C       -3.7282090      8.9819027     -2.0389269
X       -3.9213501      8.3029297     -0.7277822
X       -5.0702977      6.3836345      0.0055182
X       -5.6399350      3.7677832     -1.3703934
P       -0.2988766      7.5158110      0.1355789
O       -0.2274698      6.4951226      1.3565183
C       -0.9749516      6.6176418      2.5793385
X       -0.4327869      5.5931454      3.5854989
X        1.1457973      3.8457852      3.4582019
X        2.8911774      3.5395364      1.5250552
X        4.5102762      2.1349887      1.9872067
P        1.7150859      8.0532669      5.5844956
O        1.9877119      7.4088917      7.0101119
C        1.7651917      7.9726824      8.3163092
X        2.0177728      7.0040466      9.4941563
X        2.0993145      4.6540640      9.7391435
X        2.9108251      3.2356021      7.6870897
X        2.9541670      0.8499815      8.1651375
P        5.7402836      7.8198401      9.9156749
O        6.4792484      6.7225283     10.8443122
C        7.6681358      7.0843144     11.5526123
X        8.7666037      7.4764797     10.6125178
X        9.2900150      9.4306189      9.4092855
X        8.5854105     12.3746837      9.6081246
P       11.6946156      6.3341919     12.9006168
O       12.8101435      5.5363424     12.0595746
C       13.1958338      4.2114268     12.4039989
X       14.1352172      3.6659931     11.3271638
X       16.4748912      3.3979315     11.2268228
X       18.3858331      3.2117261     13.5312767
P       13.1904268     -0.0613029     11.4961675
O       13.7591610     -0.8801213     10.2965017
C       12.9902332     -1.8383732      9.5776839
X       13.9774839     -2.5843142      8.6796793
X       16.1351882     -2.1790684      7.8431317
X       17.8356162     -0.6421422      9.1448590
X       20.1522221     -0.8954074      8.4201897
   142
  Step:          225 Total energy:    2036.4562790180235      Temperature:   0.60204157660716007     
O       -3.7403621     -5.6731792    -15.0153032
C       -2.4030897     -5.4403146    -14.5308398
X       -1.3560311     -5.4069299    -15.6077253
X       -0.8805091     -6.5064921    -17.6166566
X       -2.7391610     -7.1143363    -19.3890585
X       -2.0014070     -7.8082791    -21.5856098
P       -1.6723943     -1.6758798    -16.7149821
O       -0.7411138     -1.4152058    -17.9751287
C        0.6840498     -1.4152959    -17.9076362
X        1.3158552     -0.2913807    -17.1440808
X        0.7610290      1.9517955    -16.6441214
X       -1.6864807      2.8054192    -16.1874714
X       -1.7433465      5.2050392    -15.6938039
P        1.7958923     -1.9337960    -13.7793950
O        2.7033024     -1.0500767    -12.8020173
C        4.1402405     -1.1023543    -12.9116719
X        4.8683906     -0.5323691    -11.7054422
X        4.4178729      0.9599395     -9.9619567
X        1.9565169      1.2172272     -9.1737832
X        1.9791271      2.1202473     -6.8836650
P        4.8714931     -3.7435980     -9.5805206
O        5.5880652     -3.5361747     -8.1922606
C        6.7591992     -4.3291139     -7.8601781
X        7.1212290     -4.1381613     -6.3855877
X        6.4792995     -5.2282380     -4.4193941
X        5.6688301     -7.7012895     -4.1608836
X        6.5240143     -8.6979217     -2.0943902
P       10.6052057     -5.8763877     -6.4435921
O       11.1660958     -5.8711960     -4.9224914
C       12.5796949     -5.8372456     -4.7543141
X       12.9762844     -5.7849702     -3.2721179
X       12.0407937     -4.8705398     -1.3059965
X        9.1146258     -4.3189130     -0.6965405
P       13.0079044     -9.5220101     -2.6109362
O       12.9588825     -9.8150656     -1.0478833
C       12.3516451    -10.9621896     -0.5111870
X       12.6340551    -11.0582808      0.9878288
X       14.3356127    -10.2793969      2.3956828
X       15.5814266     -8.0608166      1.7122406
X       16.6740779     -6.9793596      3.6193294
P        9.6797769     -9.0818379      2.3788804
O        9.8152547     -9.1030276      3.9672504
C        9.4156927    -10.2013684      4.7960959
X        8.9777226     -9.6522766      6.1604825
X        8.9673391     -7.5303301      7.2162830
X        8.4606756     -5.2505493      6.0724441
X        8.0085231     -3.4867634      7.7040130
P        5.1848288     -9.6645531      5.7385697
O        4.4553983     -8.7930727      6.8708410
C        3.9701950     -9.3224755      8.1053543
X        3.2014979     -8.3102548      8.9694289
X        3.0579799     -5.9782328      9.1967133
X        3.5854612     -4.0035577      7.0004198
P       -0.3389071     -8.7726908      7.5514372
O       -1.2365746     -7.4472939      7.7579030
C       -2.1166300     -7.3508424      8.9230993
X       -2.6621146     -5.9221264      9.1035038
X       -2.1705635     -3.8231839      8.1816021
X       -0.7772053     -2.7717296      5.6609055
P       -5.9657283     -6.4941818      7.1216456
O       -6.8721459     -5.1920618      6.9606728
C       -8.3270424     -5.3511975      7.1241501
X       -9.0649263     -4.0276561      7.0084570
X       -8.6874721     -1.8345759      7.7781972
X       -6.2011869     -0.2864411      8.4016497
P       -9.6336693     -4.2345237      3.2579914
O      -11.1439368     -3.9496809      2.8755907
C      -11.7270659     -2.6626308      3.0662443
X      -13.0571437     -2.6369946      2.3182229
X      -14.0743781     -3.9293580      0.6311906
X      -13.5676639     -6.7196657     -0.3229887
P      -15.5769785     -2.1950450      5.2943334
O      -16.7831769     -1.1974293      5.0204281
C      -17.7692286     -1.3317790      3.9740415
X      -18.7894782     -0.2188542      4.0276050
X      -19.9074639      0.8370493      5.8076188
X      -19.2286792      0.8881062      8.7560403
P      -16.7234682      2.4663743      2.1592095
O      -17.5647312      2.9372893      0.8968555
C      -17.0036411      3.3472572     -0.3537197
X      -16.1318201      2.2202442     -0.9093717
X      -16.4765165      0.3652880     -2.2790725
X      -18.7491609     -0.1360898     -4.1693932
P      -14.1528811      4.2983665     -3.5376003
O      -13.3846757      3.3668311     -4.5407398
C      -14.0876846      2.7526916     -5.6049458
X      -14.6618686      3.8048673     -6.5542356
X      -15.2955881      6.0694499     -6.2717456
X      -14.3840798      8.3413207     -4.4425923
P      -11.6988404      4.2522791     -8.9767319
O      -11.6537352      5.7664854     -9.5533321
C      -11.0849393      6.0275151    -10.8220737
X      -10.6222777      7.4698101    -10.9842639
X      -11.2995324      9.5535716    -10.1647537
X      -12.4616808     10.1053377     -7.8755780
X      -12.8398568     12.2333682     -7.5039348
P       -7.0204847      7.0151953     -9.7419092
O       -6.6439521      8.1332871     -8.6856696
C       -7.0880947      8.0288459     -7.3283419
X       -6.4829450      6.7777725     -6.6541485
X       -5.1762206      5.0266255     -7.4472999
X       -3.8235240      5.0131464     -9.6745912
X       -1.8812413      4.1041996     -9.4661720
P       -3.8148532      8.4813805     -4.6146392
O       -3.8462842      7.9779689     -3.1060299
C       -3.6402243      8.9439914     -2.0387777
X       -3.9591135      8.3047000     -0.6890479
X       -5.0411874      6.3451068     -0.0284962
X       -5.6085334      3.7322025     -1.3750735
P       -0.3335506      7.5067625      0.1567758
O       -0.2154294      6.5064062      1.3759204
C       -0.9379845      6.6214546      2.6088392
X       -0.3814004      5.6167199      3.5765783
X        1.0629296      3.7928809      3.4017033
X        2.8929622      3.5215225      1.5060367
X        4.5013486      2.1200810      2.0089276
P        1.6578298      8.0961158      5.6248282
O        2.0380244      7.4227081      7.0562008
C        1.6921039      7.9873589      8.3340387
X        1.9935573      7.0666066      9.4796937
X        2.1390319      4.7248946      9.6973310
X        2.9039213      3.2512271      7.6608865
X        2.9455574      0.8518347      8.1577073
P        5.7424961      7.7911878      9.9300898
O        6.4967441      6.7733761     10.8482430
C        7.6922258      7.1023735     11.5777424
X        8.7888582      7.5678565     10.5741219
X        9.2026197      9.4707808      9.2732053
X        8.5978805     12.3847101      9.5968781
P       11.6901694      6.3618558     12.8089164
O       12.7756521      5.4799576     12.0490263
C       13.1844064      4.1832790     12.3898085
X       14.1530356      3.6663575     11.3590571
X       16.5115852      3.4937980     11.2435049
X       18.3979119      3.2114870     13.5329679
P       13.1807405     -0.0377419     11.5262902
O       13.7638533     -0.8693583     10.2519036
C       13.0482675     -1.8897680      9.5768073
X       13.9903028     -2.6393619      8.6817833
X       16.1372548     -2.1913547      7.8627376
X       17.8363336     -0.6574209      9.1226878
X       20.1580363     -0.8703539      8.3996933
   142
  Step:          250 Total energy:    2031.6639929482453      Temperature:   0.60889365752196811     
O       -3.7472758     -5.7099125    -15.0215127
C       -2.4215451     -5.3831876    -14.5345095
X       -1.3672195     -5.3440776    -15.6358353
X       -0.9356111     -6.4205094    -17.6801270
X       -2.7968690     -7.1167489    -19.3808418
X       -1.9815119     -7.8505655    -21.5661674
P       -1.6683522     -1.7117629    -16.6889159
O       -0.7469343     -1.3558480    -17.9338874
C        0.6820681     -1.4724533    -17.8504820
X        1.2868906     -0.2841783    -17.1076987
X        0.7312802      1.9508108    -16.6893928
X       -1.6824575      2.8061652    -16.1642567
X       -1.7647363      5.2057074    -15.6713706
P        1.8038051     -1.9476761    -13.7338095
O        2.6788361     -1.0204847    -12.7924679
C        4.1381454     -1.0812480    -12.9019579
X        4.9238085     -0.5303903    -11.7263880
X        4.4680151      0.8861483     -9.9409535
X        1.9528871      1.2003841     -9.1757752
X        1.9468492      2.1302768     -6.9085468
P        4.8376128     -3.6986609     -9.5814905
O        5.6055950     -3.4851615     -8.1949554
C        6.7412328     -4.3154235     -7.8949186
X        7.1023154     -4.1906672     -6.4274393
X        6.4407161     -5.1723603     -4.4190258
X        5.6807900     -7.7003337     -4.1659918
X        6.5744877     -8.6924360     -2.0981864
P       10.5255385     -5.8175042     -6.4632453
O       11.1903509     -5.8216728     -5.0130754
C       12.5635584     -5.8528626     -4.7869783
X       12.9636357     -5.7781855     -3.3077816
X       12.0563507     -4.9277645     -1.3256839
X        9.1327616     -4.3049960     -0.6731150
P       12.9633947     -9.5213881     -2.6139136
O       12.9387390     -9.9025306     -1.0701972
C       12.2158463    -11.0060288     -0.5010543
X       12.5965510    -11.0546440      0.9679295
X       14.3464190    -10.3170932      2.3181527
X       15.5791735     -8.0962071      1.6942958
X       16.6839748     -6.9923501      3.5982826
P        9.6559026     -9.1098266      2.3678340
O        9.7177667     -9.0903535      3.9551729
C        9.3880787    -10.1963290      4.8126242
X        9.0020441     -9.7078029      6.1842255
X        8.8578296     -7.5656062      7.1840211
X        8.4576453     -5.2318668      6.0497700
X        8.0330574     -3.4637077      7.7086384
P        5.2014076     -9.6432946      5.7469717
O        4.4488013     -8.7965927      6.9000167
C        3.8833773     -9.3767410      8.0791391
X        3.1727577     -8.3482162      8.9728775
X        3.0065347     -6.0348152      9.1364852
X        3.5690035     -4.0224299      6.9883008
P       -0.3369079     -8.7853530      7.5113475
O       -1.2271259     -7.4850856      7.8107237
C       -2.1027715     -7.3196325      8.9481696
X       -2.7054016     -5.9386167      9.0629524
X       -2.1275672     -3.8206284      8.1796567
X       -0.7699079     -2.7717031      5.6453470
P       -5.9587360     -6.5027208      7.1428669
O       -6.8780561     -5.2317213      6.9561404
C       -8.2737192     -5.3899304      7.0778810
X       -9.0006582     -4.0905933      7.0070802
X       -8.6556633     -1.9254892      7.8154133
X       -6.1952698     -0.2744491      8.4186240
P       -9.6433069     -4.2866176      3.2769364
O      -11.1608735     -3.9599924      2.8609590
C      -11.7561606     -2.6531577      3.0181604
X      -13.0886164     -2.5280662      2.2971694
X      -14.0460423     -3.8664505      0.6126909
X      -13.5632990     -6.7204789     -0.3225307
P      -15.5571302     -2.1990499      5.2944538
O      -16.8149270     -1.2126470      5.0491445
C      -17.7183025     -1.2953146      3.9435850
X      -18.7504644     -0.1720391      4.0597505
X      -19.8934063      0.8705556      5.8248989
X      -19.2501263      0.8945689      8.7538525
P      -16.7142604      2.4319638      2.1389926
O      -17.5645317      3.0276560      0.9237024
C      -16.9805331      3.3735787     -0.3428108
X      -16.0968322      2.2663209     -0.8920508
X      -16.4914367      0.3764921     -2.2173863
X      -18.7282618     -0.1146845     -4.1527506
P      -14.1368377      4.2888831     -3.4831070
O      -13.3943642      3.3586782     -4.5503535
C      -14.0612961      2.7747576     -5.6760484
X      -14.6516611      3.8809520     -6.5212722
X      -15.2821174      6.1129224     -6.2612080
X      -14.3600670      8.3398591     -4.4176315
P      -11.7480720      4.3115579     -8.9624549
O      -11.6014824      5.7822394     -9.5244235
C      -11.1076659      6.0128456    -10.8193405
X      -10.6747406      7.4679007    -11.0330689
X      -11.2119420      9.5676355    -10.1146305
X      -12.4467044     10.1281099     -7.8605374
X      -12.8317082     12.2148991     -7.5153398
P       -6.9879394      7.0151940     -9.7282244
O       -6.5712031      8.1259339     -8.6310323
C       -7.0573037      8.0128337     -7.3044799
X       -6.4981279      6.7973390     -6.6464739
X       -5.2210270      4.9736307     -7.3934963
X       -3.8382270      5.0377378     -9.6654968
X       -1.8556824      4.0827541     -9.4669002
P       -3.7496563      8.4888067     -4.6237529
O       -3.8405526      7.9904599     -3.1103987
C       -3.6408883      8.9206682     -2.0495052
X       -3.9693647      8.2910168     -0.6965836
X       -5.0370074      6.3389101      0.0223164
X       -5.5734728      3.6970925     -1.3813215
P       -0.3639900      7.5087441      0.1732664
O       -0.1756367      6.5113693      1.3932141
C       -0.9385130      6.6392637      2.6012070
X       -0.3678843      5.6343965      3.5722608
X        1.0448811      3.7876919      3.3627893
X        2.8867144      3.4646641      1.4907036
X        4.5001359      2.1237936      2.0185144
P        1.6187598      8.1084492      5.7239016
O        2.0770481      7.4643528      7.0777126
C        1.6585066      8.0513043      8.3102755
X        2.0024879      7.0812410      9.4363402
X        2.1926255      4.7578478      9.6943946
X        2.8834325      3.2756177      7.6378512
X        2.9393813      0.8552248      8.1489100
P        5.7398716      7.7985607      9.9182582
O        6.5048790      6.7719916     10.8939062
C        7.6995607      7.1965430     11.5587516
X        8.7789490      7.5641581     10.5433715
X        9.2126275      9.4438787      9.2249162
X        8.6091923     12.3943178      9.5905282
P       11.6783849      6.4076154     12.7299847
O       12.7403909      5.4726325     11.9533194
C       13.1311729      4.1351010     12.3572131
X       14.1648490      3.6410759     11.3846510
X       16.5070990      3.5244139     11.2435813
X       18.4148258      3.2113118     13.5360008
P       13.1691974     -0.0128802     11.5193794
O       13.7512428     -0.8339888     10.3087290
C       13.0912995     -1.9033046      9.6337800
X       14.0272236     -2.6879671      8.6892517
X       16.1905235     -2.2449728      7.8133070
X       17.8253263     -0.6568383      9.1145502
X       20.1703590     -0.8545856      8.3657504
   142
  Step:          275 Total energy:    2035.0817692396397      Temperature:   0.66609282129174419     
O       -3.7075098     -5.7537591    -15.0795696
C       -2.4597902     -5.3137236    -14.5677488
X       -1.3469824     -5.3184001    -15.6225277
X       -0.9977873     -6.3106527    -17.7418062
X       -2.8765570     -7.1214576    -19.3660210
X       -1.9468708     -7.8825532    -21.5523611
P       -1.6985824     -1.7221132    -16.6646354
O       -0.7531679     -1.3582283    -17.8835859
C        0.6753310     -1.4748032    -17.8467126
X        1.3098553     -0.2702056    -17.1359550
X        0.7244487      1.9422030    -16.7140108
X       -1.6935170      2.8030503    -16.1372033
X       -1.7825337      5.2096802    -15.6574082
P        1.8114902     -1.9325056    -13.6654819
O        2.7570881     -1.0334925    -12.7422862
C        4.1735206     -1.0751017    -12.9572231
X        4.9041235     -0.5767757    -11.7230600
X        4.4299241      0.8660685     -9.9638864
X        1.9698225      1.1829663     -9.1687508
X        1.9109382      2.1337908     -6.9379242
P        4.8072471     -3.6440411     -9.5826587
O        5.6488487     -3.4840317     -8.2474515
C        6.6950276     -4.3594803     -7.8936859
X        7.0633867     -4.2002402     -6.4253931
X        6.3975999     -5.1933429     -4.4280238
X        5.6991838     -7.6958402     -4.1604983
X        6.6159868     -8.6853391     -2.1159449
P       10.4718446     -5.7579192     -6.4907670
O       11.1700294     -5.7784635     -5.0399650
C       12.5957008     -5.8207498     -4.8328587
X       12.9947213     -5.8020451     -3.3518141
X       12.0337336     -5.0022405     -1.3997747
X        9.1404688     -4.2895868     -0.6448338
P       12.9020530     -9.5496498     -2.6372594
O       12.9286476     -9.8874892     -1.0904712
C       12.1597132    -10.9797682     -0.4951030
X       12.5216188    -11.1514762      0.9772942
X       14.3222981    -10.3530439      2.2659072
X       15.5929014     -8.1169698      1.6769607
X       16.6785485     -7.0192194      3.5652769
P        9.6350867     -9.1424360      2.3677735
O        9.5770970     -9.0561400      3.9712189
C        9.3540929    -10.1869314      4.8313466
X        8.9865720     -9.6794619      6.1966432
X        8.8213866     -7.5714055      7.1913367
X        8.4675002     -5.2135476      6.0362864
X        8.0532812     -3.4529783      7.6985111
P        5.1944933     -9.6216610      5.7737961
O        4.4711480     -8.7941437      6.9119233
C        3.8488619     -9.4315520      8.0419889
X        3.1116804     -8.4494710      8.9673295
X        2.9931025     -6.1192433      9.0965381
X        3.5478559     -4.0359269      6.9710308
P       -0.3517999     -8.7767472      7.4851322
O       -1.2241832     -7.5061387      7.8670040
C       -2.1178753     -7.3351194      8.9414320
X       -2.6734165     -5.9422090      8.9960097
X       -2.1427055     -3.7911465      8.1553582
X       -0.7612545     -2.7792429      5.6360059
P       -5.9142046     -6.5568052      7.1384936
O       -6.8333308     -5.2476885      6.9884837
C       -8.2216624     -5.4574752      7.0866714
X       -9.0159171     -4.1338044      7.0487713
X       -8.5861923     -1.9543387      7.7878396
X       -6.1864702     -0.2621292      8.4428654
P       -9.6934624     -4.3231409      3.2568822
O      -11.2030020     -3.8992558      2.8801737
C      -11.7902196     -2.5831910      3.0168073
X      -13.0874152     -2.5445691      2.2293503
X      -14.0322112     -3.8722069      0.5624128
X      -13.5585190     -6.7061699     -0.3131857
P      -15.5442009     -2.2114876      5.2793332
O      -16.7749254     -1.2277426      5.0379066
C      -17.6802325     -1.2898360      3.9628270
X      -18.6988116     -0.1492972      4.0579641
X      -19.8664146      0.8912863      5.8051578
X      -19.2770145      0.8989019      8.7594957
P      -16.7175209      2.4039608      2.1118968
O      -17.5094216      3.1213952      0.9038940
C      -16.9238230      3.4541212     -0.3540767
X      -16.1044964      2.3048201     -0.8717559
X      -16.4987883      0.3660588     -2.1527369
X      -18.7107168     -0.0967196     -4.1372992
P      -14.1213394      4.2901059     -3.4300517
O      -13.4127028      3.3314078     -4.4945277
C      -14.0005893      2.8367391     -5.7173607
X      -14.6795182      3.8944439     -6.5714143
X      -15.3089498      6.1292521     -6.3084402
X      -14.3318290      8.3475443     -4.3760833
P      -11.7908477      4.3489997     -8.9371171
O      -11.5710868      5.8360164     -9.4895796
C      -11.1494472      6.0604340    -10.8613734
X      -10.5876476      7.4649756    -11.0076186
X      -11.1519299      9.5481188    -10.1153749
X      -12.4188218     10.1079481     -7.8686944
X      -12.8386910     12.2360224     -7.5075102
P       -6.9829100      7.0266618     -9.7250097
O       -6.5768716      8.1085427     -8.6443045
C       -7.0476388      8.0459158     -7.2838268
X       -6.4893114      6.7962324     -6.6509095
X       -5.2365495      4.9687573     -7.4488349
X       -3.8218780      5.0162333     -9.6275426
X       -1.8712504      4.0851669     -9.4872990
P       -3.6933168      8.4784698     -4.6321092
O       -3.7752428      8.0370032     -3.1025796
C       -3.7384346      8.9350849     -2.0285290
X       -3.9675189      8.2310096     -0.7094444
X       -5.0523024      6.2903522     -0.0243016
X       -5.5304242      3.6713803     -1.3787475
P       -0.3599779      7.5228729      0.1729235
O       -0.1950683      6.5445928      1.4010354
C       -0.9349779      6.6539845      2.6093425
X       -0.3887011      5.6235867      3.5928839
X        1.1028702      3.8215854      3.3739353
X        2.8514188      3.4102209      1.4699517
X        4.5290517      2.1203614      2.0244676
P        1.5812261      8.1374891      5.7641160
O        2.0786579      7.4742858      7.1127797
C        1.7277049      8.0523784      8.3735890
X        2.0360140      7.0676091      9.4963628
X        2.2047094      4.7623665      9.6819783
X        2.8552236      3.2708264      7.6269541
X        2.9261150      0.8922910      8.1365680
P        5.7563806      7.8224715      9.8910809
O        6.4706526      6.8419312     10.9258466
C        7.6729478      7.2321036     11.5389051
X        8.7054550      7.5575765     10.4965279
X        9.2996964      9.4683598      9.2683518
X        8.6228028     12.3935874      9.5853269
P       11.6999317      6.4334565     12.6629117
O       12.6731092      5.5015228     11.8730461
C       13.1018047      4.1836936     12.3310002
X       14.1310606      3.6443881     11.3231846
X       16.4431864      3.4731947     11.2966481
X       18.4357738      3.2126983     13.5445427
P       13.1352719      0.0035033     11.5102188
O       13.8110292     -0.8591283     10.3202974
C       13.1350904     -1.9528571      9.6527959
X       14.1167275     -2.6454567      8.7515003
X       16.2100595     -2.2404258      7.8129237
X       17.8369551     -0.6629211      9.0988387
X       20.1601166     -0.8434974      8.3340545
   142
  Step:          300 Total energy:    2036.9236482759597      Temperature:   0.69509257345780318     
O       -3.6530697     -5.7883571    -15.1595143
C       -2.4539390     -5.3338482    -14.5805086
X       -1.3581294     -5.2911562    -15.6148184
X       -1.0936577     -6.2562703    -17.7376206
X       -2.9353997     -7.1386657    -19.3973935
X       -1.9328755     -7.8943506    -21.4891762
P       -1.7403784     -1.6918676    -16.6416144
O       -0.7594263     -1.3884203    -17.8778266
C        0.6731290     -1.4367976    -17.8633152
X        1.3679602     -0.2770168    -17.1374774
X        0.7282590      1.9336816    -16.6884021
X       -1.7067218      2.8001760    -16.1037434
X       -1.7959393      5.2101875    -15.6456280
P        1.7951021     -1.8872827    -13.6209769
O        2.8278275     -1.0695386    -12.7366959
C        4.2002286     -1.1461165    -12.9694283
X        4.9372602     -0.5662373    -11.7645558
X        4.4456628      0.9247320    -10.0030083
X        1.9743831      1.1492062     -9.1811416
X        1.8739138      2.1453536     -6.9414997
P        4.7780613     -3.6390380     -9.5824505
O        5.6839391     -3.4699363     -8.2714300
C        6.6346647     -4.4508398     -7.8876663
X        6.9902268     -4.1713813     -6.4262828
X        6.3937577     -5.1891460     -4.3740377
X        5.7080341     -7.7074729     -4.1518464
X        6.6575295     -8.6806242     -2.1307755
P       10.4803281     -5.7140638     -6.4997699
O       11.1499228     -5.7323139     -5.0561132
C       12.6057706     -5.8303068     -4.9215452
X       12.9745070     -5.8203554     -3.4274339
X       11.9931961     -5.0543081     -1.4424895
X        9.1450077     -4.2735601     -0.6125918
P       12.8324945     -9.6015965     -2.6674025
O       12.8714341     -9.8836695     -1.0848714
C       12.1442703    -10.9664042     -0.4856506
X       12.5143154    -11.1593449      0.9552550
X       14.2929069    -10.3477143      2.2657178
X       15.5916743     -8.1597554      1.6382417
X       16.6719481     -7.0546583      3.5411944
P        9.5825244     -9.1534674      2.3726859
O        9.5056322     -9.0616002      3.9351473
C        9.3270615    -10.1608060      4.8289863
X        8.9113996     -9.5911352      6.2162903
X        8.8799657     -7.4922868      7.2328448
X        8.4774321     -5.2090859      6.0293230
X        8.0710455     -3.4488317      7.6676362
P        5.1726804     -9.6161823      5.7875595
O        4.4633603     -8.7995939      6.9847229
C        3.8031244     -9.5127979      8.0393663
X        3.1230642     -8.5044074      8.9184872
X        2.9993613     -6.1718100      8.9994898
X        3.5220977     -4.0534845      6.9631148
P       -0.3752433     -8.7927295      7.4798715
O       -1.2111821     -7.4413560      7.7981510
C       -2.1191267     -7.3583715      8.9239565
X       -2.6695876     -5.9291396      9.0375358
X       -2.1700286     -3.8080406      8.1284937
X       -0.7501319     -2.7875720      5.6242444
P       -5.8652297     -6.6080198      7.1013606
O       -6.8008003     -5.3144902      7.0391373
C       -8.2062185     -5.5084045      7.1666047
X       -8.9955155     -4.1740842      7.0469261
X       -8.5598947     -1.9714865      7.7676568
X       -6.1716421     -0.2493582      8.4651975
P       -9.7678513     -4.3145937      3.2420756
O      -11.2419113     -3.8648785      2.9189299
C      -11.7581483     -2.5405968      2.9754794
X      -13.1086260     -2.5393307      2.2382136
X      -14.0685567     -3.8273207      0.4933915
X      -13.5536308     -6.6981734     -0.3094302
P      -15.5076899     -2.2358343      5.2410844
O      -16.7083954     -1.1767011      5.0437852
C      -17.6592137     -1.2927495      3.9783443
X      -18.6776536     -0.1671093      4.0319005
X      -19.8037439      0.8853552      5.7908103
X      -19.3088276      0.9079814      8.7645141
P      -16.6738037      2.4315400      2.0534962
O      -17.4898042      3.1738303      0.9201605
C      -16.9055680      3.4962880     -0.3396808
X      -16.1003697      2.3109441     -0.8450185
X      -16.5514566      0.3912641     -2.1086588
X      -18.7000228     -0.0834518     -4.1169819
P      -14.1086249      4.2845818     -3.4036675
O      -13.4065836      3.3543874     -4.4975788
C      -14.0739816      2.8512484     -5.6743818
X      -14.6756625      3.9685147     -6.5703393
X      -15.2861674      6.1867775     -6.2532446
X      -14.3118155      8.3472474     -4.3395743
P      -11.7965932      4.3808298     -8.9413139
O      -11.5889977      5.8486320     -9.4793836
C      -11.0581773      6.0778304    -10.8088232
X      -10.5551664      7.4876806    -10.9626050
X      -11.0778191      9.5976765    -10.1131101
X      -12.3924720     10.1187133     -7.8868671
X      -12.8417901     12.2360845     -7.5025372
P       -6.9939066      7.0083347     -9.7228498
O       -6.6282786      8.1552356     -8.6771343
C       -7.0536161      8.0668963     -7.2872486
X       -6.4617507      6.8300528     -6.6107984
X       -5.2495004      4.9754142     -7.3953739
X       -3.8230843      4.9842234     -9.6086909
X       -1.8701411      4.0801288     -9.5032243
P       -3.6532153      8.4802273     -4.6456802
O       -3.6867960      8.0290385     -3.0980312
C       -3.8105261      8.9728698     -2.0412065
X       -4.0175482      8.2577265     -0.6932381
X       -5.0261582      6.2275835      0.0232669
X       -5.4901407      3.6336686     -1.3834506
P       -0.3300811      7.5547817      0.1539197
O       -0.2282180      6.5536390      1.4143358
C       -0.9753670      6.6161386      2.6224667
X       -0.3773304      5.6563992      3.6257872
X        1.1249141      3.8430638      3.4294349
X        2.8383462      3.3529346      1.4588576
X        4.5520852      2.1162258      2.0216581
P        1.5422538      8.1608594      5.7636235
O        2.0215528      7.4785482      7.1619199
C        1.8027960      8.0445250      8.4543574
X        2.1049331      7.0580635      9.5880305
X        2.1614069      4.7184436      9.7336600
X        2.8237297      3.2844616      7.6095931
X        2.9168924      0.9097559      8.1363262
P        5.7647432      7.8696434      9.8441491
O        6.3915929      6.9141383     10.9187174
C        7.6238518      7.2544177     11.5522619
X        8.7226358      7.5545674     10.5056094
X        9.3440815      9.5007797      9.2984656
X        8.6403062     12.3878093      9.5837940
P       11.7010392      6.4794415     12.6074934
O       12.6785018      5.5116151     11.7723177
C       13.0594911      4.2219051     12.2260191
X       14.1014834      3.6997457     11.2578254
X       16.4073348      3.3698021     11.3277963
X       18.4563994      3.2136532     13.5530862
P       13.0968828     -0.0065594     11.4733050
O       13.8491081     -0.8398476     10.3855983
C       13.2042042     -1.9204245      9.6875707
X       14.1489203     -2.6941811      8.7865267
X       16.2010771     -2.2287461      7.7620428
X       17.8609764     -0.6552671      9.0990861
X       20.1433629     -0.8334772      8.2960807
   142
  Step:          325 Total energy:    2035.2212982214467      Temperature:   0.61251976809976860     
O       -3.6174338     -5.8231761    -15.2355298
C       -2.4307330     -5.3821457    -14.5409689
X       -1.3850141     -5.3081228    -15.6431948
X       -1.1483840     -6.2901827    -17.7398535
X       -2.9940279     -7.1377804    -19.4053312
X       -1.9169842     -7.9076881    -21.4372799
P       -1.7605458     -1.6307919    -16.6503832
O       -0.7398162     -1.3408078    -17.8666330
C        0.6671680     -1.4590848    -17.8115758
X        1.3078231     -0.2582739    -17.1202233
X        0.6952389      1.9518974    -16.5806501
X       -1.7098181      2.7860214    -16.0656745
X       -1.8065974      5.2082789    -15.6378739
P        1.7453189     -1.8549179    -13.6319855
O        2.8469647     -1.0544640    -12.7609224
C        4.2567552     -1.1785952    -12.9219970
X        5.0341592     -0.5352057    -11.7940904
X        4.4351166      0.9805634    -10.1112232
X        1.9776871      1.1162755     -9.1854806
X        1.8342688      2.1464217     -6.9471804
P        4.7730661     -3.6628675     -9.5687644
O        5.6776116     -3.4527844     -8.2967651
C        6.5629120     -4.4715585     -7.8187064
X        6.9503987     -4.2374312     -6.3941202
X        6.3928298     -5.1981678     -4.3516117
X        5.7096444     -7.7123852     -4.1578502
X        6.7070243     -8.6872107     -2.1278043
P       10.4970030     -5.6776834     -6.5123206
O       11.1658548     -5.7004981     -5.0988599
C       12.5693756     -5.8609668     -4.9322270
X       12.9176399     -5.8689286     -3.4907182
X       11.9516214     -5.0729067     -1.5074986
X        9.1499837     -4.2546097     -0.5840601
P       12.7654529     -9.6383637     -2.6929353
O       12.7750639     -9.9042164     -1.1270359
C       12.1586730    -11.0302529     -0.5360190
X       12.5110603    -11.0684660      0.9493788
X       14.2847858    -10.3425327      2.3269073
X       15.5865883     -8.2013075      1.5934814
X       16.6619972     -7.1038821      3.5166310
P        9.5083758     -9.1672733      2.3338232
O        9.5485659     -9.0484045      3.9522245
C        9.2340169    -10.0960260      4.8536668
X        8.9003125     -9.5437317      6.2334473
X        8.9841919     -7.4552508      7.2912307
X        8.4888576     -5.2117183      6.0088193
X        8.0901021     -3.4284149      7.6401666
P        5.1233157     -9.6051711      5.7892605
O        4.4520896     -8.8834078      6.9819841
C        3.8029773     -9.5709064      8.0217374
X        3.1239542     -8.5631266      8.9155158
X        3.0114393     -6.1953202      9.0029432
X        3.4997038     -4.0590091      6.9452857
P       -0.4276908     -8.7809984      7.4802875
O       -1.2044176     -7.4482637      7.7321657
C       -2.0344629     -7.3090366      8.8926474
X       -2.6840747     -5.9345571      9.0611724
X       -2.1873510     -3.8752413      8.1303428
X       -0.7468767     -2.7978341      5.6096489
P       -5.8092153     -6.6439829      7.0537423
O       -6.8199707     -5.4203961      7.0888692
C       -8.2438028     -5.5152930      7.2086679
X       -8.8870154     -4.1810010      7.0616808
X       -8.5214552     -1.9767456      7.7427005
X       -6.1667408     -0.2482049      8.4802757
P       -9.7981762     -4.2971722      3.2720825
O      -11.3394274     -3.8852021      2.9575936
C      -11.8147020     -2.5388483      2.8915674
X      -13.1320572     -2.4944328      2.1788818
X      -14.0630667     -3.8590645      0.5291449
X      -13.5501456     -6.6847567     -0.3060466
P      -15.4849890     -2.2512806      5.2181242
O      -16.6217676     -1.1456167      5.0078135
C      -17.6134814     -1.3071851      3.9673206
X      -18.6299100     -0.1813715      4.0361403
X      -19.7763933      0.8790779      5.7893767
X      -19.3346630      0.9217807      8.7592230
P      -16.5999279      2.4603510      2.0149244
O      -17.5192928      3.2025547      0.9400229
C      -16.9347947      3.5208649     -0.3392378
X      -16.0776511      2.3446315     -0.8096850
X      -16.5360349      0.4078880     -2.0433202
X      -18.6968929     -0.0708487     -4.1010772
P      -14.0710636      4.2892970     -3.4028076
O      -13.4348558      3.3950398     -4.5582158
C      -14.1582817      2.8692336     -5.6311476
X      -14.6930061      3.9995699     -6.4941198
X      -15.2808589      6.2535771     -6.2631446
X      -14.2889490      8.3549653     -4.2924410
P      -11.7689644      4.3837522     -8.9579911
O      -11.6239735      5.8889054     -9.4760507
C      -10.9597218      6.0892440    -10.7195801
X      -10.5235630      7.5258758    -10.9569247
X      -11.0576284      9.6667570    -10.1248073
X      -12.3787938     10.1586697     -7.9084582
X      -12.8358456     12.2130681     -7.4995571
P       -7.0142104      6.9932281     -9.7015141
O       -6.6696054      8.1572109     -8.6461900
C       -7.0210588      8.0796431     -7.2851609
X       -6.4491657      6.8553808     -6.6376934
X       -5.2079338      5.0193845     -7.3105080
X       -3.8599837      4.9480302     -9.6019127
X       -1.8372414      4.0651251     -9.5062948
P       -3.6149191      8.4935243     -4.6309851
O       -3.6223636      8.0200923     -3.1189503
C       -3.8489409      8.9353719     -2.0192453
X       -4.0598022      8.2739258     -0.6806742
X       -4.9664898      6.2168221      0.0319112
X       -5.4486414      3.6004312     -1.3882629
P       -0.3345225      7.5810510      0.1727342
O       -0.2310849      6.5703628      1.3971374
C       -0.9988418      6.5963633      2.6046972
X       -0.3476310      5.6439055      3.5929426
X        1.1507514      3.8480579      3.4225583
X        2.8271137      3.3073795      1.4796936
X        4.5525831      2.1029089      2.0105131
P        1.5188693      8.1661764      5.8096818
O        1.9122798      7.4983414      7.1973474
C        1.8083285      8.0577873      8.4889446
X        2.1003497      7.0159463      9.5686885
X        2.1119364      4.6764699      9.7202846
X        2.7884145      3.3194892      7.6140656
X        2.9077952      0.9093173      8.1339959
P        5.7617835      7.9140022      9.7870369
O        6.4355833      6.9703362     10.9078547
C        7.6697851      7.2489690     11.5756816
X        8.7184165      7.5839384     10.5631382
X        9.3445270      9.4643139      9.2939023
X        8.6543090     12.3873673      9.5838019
P       11.7183106      6.5068123     12.5556116
O       12.7117821      5.5368925     11.7412033
C       13.0286734      4.2468501     12.1033466
X       14.1027118      3.6422572     11.2157415
X       16.4328782      3.3138538     11.3613314
X       18.4666141      3.2191870     13.5540070
P       13.0546097      0.0201556     11.4562833
O       13.9129868     -0.8823444     10.4231065
C       13.2498433     -1.9344339      9.7155589
X       14.1977515     -2.7056505      8.8037302
X       16.2358109     -2.1982372      7.7899242
X       17.8523537     -0.6514982      9.1023531
X       20.1588927     -0.8249821      8.2439746
   142
  Step:          350 Total energy:    2033.3823244526614      Temperature:   0.63305598469800317     
O       -3.6480814     -5.8622880    -15.2367332
C       -2.4398040     -5.4098905    -14.5932607
X       -1.3848792     -5.3300551    -15.6716049
X       -1.1315659     -6.3550996    -17.7519069
X       -3.0520185     -7.1206368    -19.3878104
X       -1.8969779     -7.9367753    -21.4225537
P       -1.7483194     -1.5905670    -16.6683365
O       -0.7861259     -1.2737135    -17.8706135
C        0.6242479     -1.4205826    -17.7791846
X        1.2860338     -0.2751348    -17.0392136
X        0.7198076      1.9604732    -16.5111810
X       -1.7332681      2.7791355    -16.0249817
X       -1.8159861      5.1949738    -15.6316457
P        1.7283114     -1.8002479    -13.6535342
O        2.8563120     -1.0324290    -12.8275797
C        4.3017654     -1.1899814    -12.9894027
X        5.0280405     -0.5677639    -11.7835153
X        4.4142911      1.0293211    -10.1693532
X        1.9805667      1.0926193     -9.1737074
X        1.8045826      2.1312450     -6.9707368
P        4.7850470     -3.6684816     -9.5801080
O        5.6406270     -3.4762082     -8.2524404
C        6.5362142     -4.5261237     -7.8008984
X        6.9553156     -4.2675924     -6.3650645
X        6.3875995     -5.1713191     -4.2819915
X        5.7198752     -7.7234787     -4.1446302
X        6.7512216     -8.6909180     -2.1362388
P       10.4812359     -5.6289189     -6.5758450
O       11.1579906     -5.6734879     -5.0998810
C       12.5442281     -5.9369317     -4.9531656
X       12.9222304     -5.9355515     -3.4985481
X       11.9319864     -5.0525890     -1.5334440
X        9.1558241     -4.2335933     -0.5598658
P       12.6847989     -9.6625447     -2.7499017
O       12.7033806     -9.9001095     -1.1696915
C       12.2102634    -11.0737139     -0.5175496
X       12.4841306    -11.0496156      0.9874886
X       14.2325793    -10.3211416      2.3231985
X       15.5993471     -8.2283099      1.5598103
X       16.6445712     -7.1594520      3.4825596
P        9.4369440     -9.1860432      2.3260044
O        9.5873200     -9.0143598      3.9011553
C        9.1856498    -10.0104015      4.8363926
X        8.9099326     -9.5292432      6.2361358
X        9.0643609     -7.4276621      7.2730947
X        8.5031568     -5.2125377      5.9930405
X        8.1081622     -3.4036856      7.6075579
P        5.1058086     -9.6230999      5.7431839
O        4.3736938     -8.8793199      6.9821646
C        3.7610878     -9.5896108      8.0715737
X        3.0800377     -8.5763938      8.9451960
X        3.0362607     -6.2240466      8.9772738
X        3.4796262     -4.0678564      6.9378898
P       -0.4503050     -8.7941159      7.4683931
O       -1.2626519     -7.4144494      7.7475994
C       -2.0148565     -7.3319983      8.9360632
X       -2.5972286     -5.9294511      8.9854610
X       -2.2064222     -3.8241653      8.1130581
X       -0.7563830     -2.8179638      5.6034218
P       -5.7695193     -6.7019885      7.0047488
O       -6.7657180     -5.4662186      7.1010681
C       -8.2240719     -5.5530818      7.2449154
X       -8.8805439     -4.1952695      7.0460903
X       -8.5016676     -1.9676469      7.7405614
X       -6.1562306     -0.2421036      8.4901970
P       -9.8494659     -4.2803073      3.3190445
O      -11.3605457     -3.9011512      3.0452231
C      -11.7975308     -2.5453008      2.8710908
X      -13.1229012     -2.4536896      2.1119742
X      -14.1717210     -3.8400981      0.5004794
X      -13.5375012     -6.6858017     -0.3124652
P      -15.4702663     -2.2509271      5.1881730
O      -16.5771949     -1.1353434      4.9872866
C      -17.5530927     -1.2780841      3.9536357
X      -18.5370608     -0.1461614      4.0352764
X      -19.7768688      0.8671473      5.7704053
X      -19.3574839      0.9375283      8.7577983
P      -16.5495863      2.4724697      2.0168450
O      -17.4631315      3.2094530      0.9518144
C      -16.9622804      3.5414324     -0.3329415
X      -16.1328071      2.3728995     -0.8169214
X      -16.5374235      0.4351902     -2.0369477
X      -18.6854767     -0.0614881     -4.0812223
P      -14.0292028      4.3416850     -3.3999603
O      -13.4151003      3.3887619     -4.5424607
C      -14.2129434      2.9164366     -5.6264404
X      -14.7690302      3.9919155     -6.5400573
X      -15.2620356      6.2820511     -6.2689031
X      -14.2700509      8.3701380     -4.2379951
P      -11.7676523      4.3848595     -8.9476706
O      -11.6129897      5.8945494     -9.4805616
C      -10.9895834      6.1269888    -10.7246235
X      -10.4750336      7.5551954    -10.9641701
X      -11.1143579      9.6799085    -10.1882033
X      -12.3583953     10.1463712     -7.9332871
X      -12.8351101     12.2460477     -7.4741557
P       -7.0205979      7.0070126     -9.6496728
O       -6.5968106      8.1516121     -8.6325750
C       -7.0444069      8.1089154     -7.2837411
X       -6.4155030      6.8580318     -6.5810505
X       -5.1487277      5.0264146     -7.3058124
X       -3.8617066      4.8978199     -9.5884773
X       -1.8537339      4.0679719     -9.5183557
P       -3.5792641      8.5086088     -4.6131528
O       -3.6077421      8.0170038     -3.0953488
C       -3.8432330      8.9495109     -2.0032760
X       -4.0258142      8.2128023     -0.7107419
X       -4.9780911      6.2145224     -0.0152847
X       -5.4008227      3.5748673     -1.3833216
P       -0.3872518      7.6289668      0.1977396
O       -0.1807527      6.5896204      1.3705234
C       -0.9656241      6.6106049      2.5791341
X       -0.3474872      5.6307068      3.5619939
X        1.1164971      3.7872808      3.4453659
X        2.8294808      3.2916091      1.4953048
X        4.5554542      2.0665840      1.9978683
P        1.4767755      8.1812879      5.8544283
O        1.8585205      7.4327167      7.2135224
C        1.6635275      8.0604060      8.5032280
X        2.0476800      7.0678063      9.5689940
X        2.0514962      4.7100178      9.7396183
X        2.7570714      3.3178017      7.6184536
X        2.8955691      0.9285433      8.1196805
P        5.7768997      7.9278448      9.7786457
O        6.4873947      7.0053739     10.8602431
C        7.6690771      7.3292691     11.5730527
X        8.7349762      7.6160472     10.5773140
X        9.2716625      9.4627309      9.2762216
X        8.6571339     12.4006820      9.5780906
P       11.7751181      6.4985373     12.5283121
O       12.8065129      5.5470411     11.7136593
C       13.0217221      4.1884227     12.0646422
X       14.1177104      3.5821320     11.1759474
X       16.4772214      3.3205912     11.3254603
X       18.4727674      3.2238786     13.5516620
P       13.0346333      0.0150600     11.4195023
O       13.9019860     -0.9559570     10.5030012
C       13.2648784     -1.9670890      9.7680625
X       14.2151448     -2.6986977      8.8152799
X       16.2740249     -2.2323613      7.7730539
X       17.8782084     -0.6360045      9.1098291
X       20.1526454     -0.8189328      8.1989929
   142
  Step:          375 Total energy:    2033.9395892739844      Temperature:   0.64214102833814724     
O       -3.7008508     -5.8931560    -15.2058556
C       -2.4884917     -5.3714930    -14.6855471
X       -1.3965882     -5.3263619    -15.7213004
X       -1.1324284     -6.4138950    -17.7796612
X       -3.0651961     -7.1169717    -19.4017066
X       -1.9142803     -7.9594203    -21.3898760
P       -1.7637854     -1.6001840    -16.6503665
O       -0.8274221     -1.2087342    -17.9016758
C        0.6195082     -1.3761875    -17.7847331
X        1.2688649     -0.2345225    -17.0494436
X        0.6842809      1.9382473    -16.4531727
X       -1.7539404      2.7651190    -15.9907373
X       -1.8281215      5.1847333    -15.6292276
P        1.7601378     -1.7524177    -13.6482886
O        2.8785204     -0.9716190    -12.8567991
C        4.2858452     -1.1972333    -13.0118684
X        4.9343170     -0.5733533    -11.8078216
X        4.4053049      0.9894468    -10.1529990
X        1.9808590      1.0678731     -9.1783252
X        1.7889429      2.1208376     -6.9801125
P        4.8122079     -3.6632830     -9.5927820
O        5.5660858     -3.5733042     -8.1941815
C        6.5301383     -4.5415986     -7.7884910
X        6.9228599     -4.2596010     -6.3338980
X        6.3789112     -5.2123652     -4.2739539
X        5.7381837     -7.7138026     -4.1182952
X        6.7864588     -8.6892100     -2.1480537
P       10.4759405     -5.5779153     -6.6217158
O       11.1530070     -5.6750546     -5.2007835
C       12.5092233     -6.0388534     -4.9779389
X       12.9111363     -5.9493265     -3.4789281
X       11.9361299     -5.0381699     -1.5237412
X        9.1648471     -4.2167092     -0.5384619
P       12.5914036     -9.6895544     -2.7803053
O       12.6565496     -9.9019598     -1.1872209
C       12.1554239    -11.0824823     -0.5287018
X       12.4753930    -11.1090799      0.9691052
X       14.1652956    -10.2990697      2.3558759
X       15.6165871     -8.2598029      1.5198929
X       16.6332753     -7.1966584      3.4591373
P        9.3874936     -9.2154735      2.3148901
O        9.5299099     -8.9555364      3.8774191
C        9.2419583    -10.0527923      4.7826430
X        8.9029217     -9.4823261      6.1607673
X        9.0819239     -7.3977283      7.2567773
X        8.5265137     -5.1965874      5.9905166
X        8.1148174     -3.3798462      7.5655383
P        5.0897254     -9.6212685      5.7475902
O        4.3001573     -8.9323987      6.9281939
C        3.7221075     -9.5867474      8.0680676
X        3.0593098     -8.5449561      8.9746345
X        2.9817868     -6.2090966      9.0069437
X        3.4626115     -4.0765369      6.9378882
P       -0.4442998     -8.7919095      7.4416548
O       -1.2425711     -7.4916581      7.7352783
C       -1.9500546     -7.3016210      8.9376095
X       -2.6322475     -5.9204248      9.0089864
X       -2.1764848     -3.7877953      8.1245042
X       -0.7672867     -2.8368658      5.5900730
P       -5.7553440     -6.7466265      6.9793798
O       -6.7249621     -5.4776599      7.0558054
C       -8.1564548     -5.5558102      7.1812220
X       -8.8991778     -4.2144809      7.1008887
X       -8.4762074     -1.9711081      7.7394554
X       -6.1502841     -0.2375811      8.4952514
P       -9.8770282     -4.2844356      3.3724866
O      -11.4096782     -3.8669743      3.1383786
C      -11.7933509     -2.5114568      2.8085713
X      -13.1406411     -2.5169842      2.0876262
X      -14.1581426     -3.8546637      0.4696578
X      -13.5238540     -6.6770344     -0.3183562
P      -15.4319386     -2.2567244      5.1588453
O      -16.5672176     -1.1124753      5.0196950
C      -17.4899305     -1.1939305      3.9342610
X      -18.5074335     -0.0899960      4.0268037
X      -19.7328456      0.8623602      5.7819328
X      -19.3769279      0.9543764      8.7538561
P      -16.4972870      2.4845218      2.0569824
O      -17.4263906      3.2317385      0.9733146
C      -17.0004006      3.5729602     -0.3391948
X      -16.1331345      2.4309007     -0.8806980
X      -16.5188786      0.4459155     -2.0600199
X      -18.6784789     -0.0605367     -4.0662160
P      -13.9994306      4.3807011     -3.3888397
O      -13.4832360      3.4047248     -4.5335848
C      -14.2225218      2.8993594     -5.6904339
X      -14.7828189      4.0448678     -6.5454239
X      -15.2168778      6.3270057     -6.2072048
X      -14.2550246      8.3795788     -4.1906079
P      -11.7980379      4.4038729     -8.9177047
O      -11.5562329      5.8733467     -9.4994933
C      -11.0266247      6.1150062    -10.7921640
X      -10.5415854      7.5523875    -10.9747574
X      -11.1328880      9.7017058    -10.2582958
X      -12.3494537     10.1616849     -7.9503761
X      -12.8259388     12.2505220     -7.4530801
P       -6.9860702      7.0140159     -9.5942451
O       -6.5383515      8.1480718     -8.5707490
C       -6.9708643      8.0911892     -7.2146925
X       -6.3820578      6.8622270     -6.5287438
X       -5.1657843      5.0048161     -7.2723181
X       -3.8717506      4.8550478     -9.5674421
X       -1.8669964      4.0619183     -9.5305008
P       -3.5524311      8.5230968     -4.5959613
O       -3.6097015      8.0298300     -3.0971239
C       -3.7617802      8.9514777     -2.0259672
X       -4.0135143      8.2004235     -0.7050619
X       -5.0018770      6.1883546     -0.0014656
X       -5.3536252      3.5418861     -1.3813877
P       -0.4139378      7.6943239      0.2024462
O       -0.1566819      6.6034383      1.3438705
C       -0.9127545      6.5850911      2.5671866
X       -0.3431457      5.6184866      3.5731573
X        1.0611212      3.7609464      3.4242810
X        2.8369742      3.2963668      1.5201546
X        4.5539688      2.0246573      1.9814570
P        1.4114938      8.1470501      5.8709113
O        1.8162772      7.4339146      7.2084751
C        1.5508666      8.0270178      8.5047365
X        1.9534951      7.1058634      9.5920692
X        2.0623202      4.7776137      9.7212909
X        2.7219378      3.3250940      7.6342680
X        2.8775357      0.9435304      8.1043601
P        5.7728138      7.9457591      9.7749298
O        6.4855246      6.9679031     10.8371808
C        7.6404425      7.3767072     11.6032720
X        8.7602204      7.6585350     10.5424516
X        9.2482006      9.5206852      9.1874128
X        8.6516801     12.4264503      9.5647054
P       11.8854002      6.4597642     12.5256320
O       12.8577689      5.5394517     11.6966797
C       13.0874630      4.1473778     12.0330160
X       14.1608025      3.5879297     11.1476748
X       16.4822811      3.3305646     11.2830834
X       18.4703133      3.2295012     13.5490016
P       13.0054427     -0.0075002     11.4035837
O       13.8996105     -1.0293712     10.5753729
C       13.2657796     -2.0315093      9.7786663
X       14.2161332     -2.7242548      8.8273752
X       16.2579317     -2.2048785      7.8571018
X       17.9160015     -0.6274848      9.0989122
X       20.1406301     -0.8072179      8.1583772
   142
  Step:          400 Total energy:    2038.7453545211897      Temperature:   0.62690067664058746     
O       -3.7392659     -5.8852682    -15.1871673
C       -2.5338202     -5.3213480    -14.6778328
X       -1.4650727     -5.2953176    -15.7746494
X       -1.1190815     -6.4330611    -17.8185171
X       -3.0519382     -7.1100774    -19.4110266
X       -1.9492757     -7.9884446    -21.3739794
P       -1.7740990     -1.6068421    -16.6463045
O       -0.8433877     -1.2148333    -17.8188095
C        0.5744013     -1.3447062    -17.8677209
X        1.2468752     -0.1859276    -17.1376066
X        0.6899757      1.9907642    -16.4502071
X       -1.7839599      2.7471720    -15.9564090
X       -1.8436626      5.1726593    -15.6277244
P        1.7814913     -1.7368481    -13.6561385
O        2.8414998     -0.8738020    -12.8214876
C        4.2244167     -1.1567729    -12.9735477
X        5.0010091     -0.5730575    -11.8176182
X        4.4193922      0.9230765    -10.1019151
X        1.9536854      1.0400436     -9.1922817
X        1.7837639      2.1152514     -6.9788513
P        4.8280863     -3.7012203     -9.6067396
O        5.4958061     -3.5987807     -8.1629076
C        6.4847628     -4.4977022     -7.7659946
X        6.9251016     -4.2475551     -6.3468300
X        6.3837822     -5.1496096     -4.2436662
X        5.7492715     -7.7063986     -4.0964424
X        6.8258380     -8.7052906     -2.1386168
P       10.4801417     -5.5392079     -6.6866905
O       11.1320147     -5.7023946     -5.2115973
C       12.5006354     -6.0301947     -4.9736850
X       12.8301659     -5.9671142     -3.5016716
X       11.9564987     -5.0286958     -1.5733441
X        9.1767765     -4.2021830     -0.5189605
P       12.4921787     -9.6965983     -2.7553694
O       12.6217437     -9.9680151     -1.2020167
C       12.0794814    -11.1234572     -0.5488698
X       12.4130031    -11.1331059      0.9336520
X       14.1353744    -10.2836196      2.2853272
X       15.6215522     -8.3079399      1.4809427
X       16.6341922     -7.2176493      3.4462128
P        9.3744445     -9.2418709      2.2726702
O        9.4321819     -8.9572623      3.8167822
C        9.3136258    -10.0102015      4.7798277
X        8.9033392     -9.4790280      6.1122014
X        9.0274749     -7.4400242      7.2117388
X        8.5610225     -5.1721762      5.9723164
X        8.1087845     -3.3431340      7.5307595
P        5.0726020     -9.6422999      5.7400216
O        4.2562446     -8.9210151      6.9160227
C        3.7351170     -9.5733091      8.0763253
X        3.0392269     -8.5255013      8.9552627
X        2.9164422     -6.1868984      9.0519177
X        3.4496949     -4.0820439      6.9424238
P       -0.4035109     -8.8359113      7.4034672
O       -1.2682221     -7.4742970      7.7103761
C       -1.9667866     -7.2536605      8.9556206
X       -2.6176090     -5.9152577      9.0745493
X       -2.1674367     -3.7877570      8.1362123
X       -0.7806393     -2.8511888      5.5761481
P       -5.7558200     -6.7529660      6.9781448
O       -6.7343377     -5.4709506      6.9246177
C       -8.1123694     -5.5682340      7.1531383
X       -8.8656539     -4.2451749      7.1215306
X       -8.4862238     -2.0225630      7.8158205
X       -6.1473076     -0.2349948      8.4942473
P       -9.9119683     -4.2965990      3.4397011
O      -11.4156035     -3.8120801      3.1923166
C      -11.7964862     -2.5111261      2.7647563
X      -13.1565843     -2.5386559      2.0987600
X      -14.1575565     -3.8366478      0.4409822
X      -13.5012110     -6.6767696     -0.3353212
P      -15.3997036     -2.2405635      5.1652816
O      -16.5255994     -1.1426672      5.0301097
C      -17.4161559     -1.1472646      3.9239114
X      -18.4842899     -0.0439013      4.0109461
X      -19.7419395      0.9142181      5.7543619
X      -19.3965196      0.9701552      8.7572031
P      -16.4642528      2.5343961      2.0815604
O      -17.3837730      3.2530368      0.9829702
C      -16.9869428      3.5907605     -0.3399091
X      -16.1175433      2.4728130     -0.8884359
X      -16.4687896      0.4943673     -2.0952565
X      -18.6800508     -0.0603476     -4.0535999
P      -13.9889097      4.3961151     -3.3910927
O      -13.5111403      3.4336680     -4.5598090
C      -14.2745073      2.9393622     -5.6823587
X      -14.7366911      4.0871579     -6.5322190
X      -15.2584716      6.3382835     -6.1940134
X      -14.2346034      8.3934922     -4.1388226
P      -11.8087310      4.4121555     -8.8926746
O      -11.5413895      5.8848955     -9.4550568
C      -11.0758546      6.1163051    -10.8269615
X      -10.5672672      7.5486036    -10.9972149
X      -11.1433921      9.6627886    -10.2406821
X      -12.3563271     10.2009717     -7.9657973
X      -12.8061235     12.2248287     -7.4360369
P       -6.9435845      7.0101429     -9.5596685
O       -6.5385841      8.1502850     -8.5034785
C       -6.8796408      8.0863005     -7.1116308
X       -6.3525682      6.8515629     -6.5039853
X       -5.2135104      4.9332311     -7.2488411
X       -3.9166553      4.8425018     -9.5512959
X       -1.8548495      4.0380615     -9.5285053
P       -3.5394531      8.5426664     -4.6093404
O       -3.5870270      8.0177702     -3.0798259
C       -3.7402576      8.9054236     -2.0024363
X       -4.0527734      8.2422785     -0.6730060
X       -4.9664213      6.1729372     -0.0553784
X       -5.3066808      3.5075201     -1.3805924
P       -0.3738476      7.7488973      0.2192430
O       -0.1938827      6.6389125      1.3368240
C       -0.9243177      6.6223612      2.5532851
X       -0.3567360      5.5890563      3.5480927
X        1.0898306      3.7316304      3.4367694
X        2.8565480      3.2974895      1.5324056
X        4.5359047      1.9760964      1.9678705
P        1.3376548      8.0874767      5.8506994
O        1.7815297      7.4571685      7.2571324
C        1.5146661      8.0977138      8.4990768
X        1.8998068      7.0984226      9.6042356
X        2.0928627      4.7522809      9.7887499
X        2.6954662      3.3629582      7.6424040
X        2.8622268      0.9423759      8.0919827
P        5.7096380      7.9318535      9.7912194
O        6.4685412      7.0109283     10.8259068
C        7.6770629      7.3178506     11.4964446
X        8.7626186      7.7047408     10.5246843
X        9.2861404      9.5303518      9.1499109
X        8.6397259     12.4508794      9.5480924
P       11.9582693      6.4462107     12.5442841
O       12.8911531      5.5259697     11.6491091
C       13.1714385      4.1467506     12.0217155
X       14.2213026      3.5719450     11.1149964
X       16.5227937      3.3325462     11.2362681
X       18.4606142      3.2345138     13.5457235
P       12.9867545     -0.0431238     11.4025036
O       13.9065900     -1.0931323     10.6155511
C       13.2146098     -2.0933163      9.8009151
X       14.1927028     -2.7928644      8.8701568
X       16.2353735     -2.2001647      7.8629167
X       17.9326741     -0.6071862      9.1089872
X       20.1679719     -0.8061223      8.1127951
   142
  Step:          425 Total energy:    2039.1695055242833      Temperature:   0.70981484986806820     
O       -3.7985128     -5.8497132    -15.1756281
C       -2.5667808     -5.3245847    -14.6745268
X       -1.5151971     -5.2676679    -15.7550775
X       -1.1160510     -6.3516083    -17.7653766
X       -3.0460406     -7.0947697    -19.3897086
X       -1.9825687     -8.0348968    -21.4042306
P       -1.8143295     -1.6068589    -16.6006035
O       -0.8685819     -1.2114011    -17.8933492
C        0.5687879     -1.2812166    -17.9083024
X        1.2732189     -0.1336053    -17.1681514
X        0.6267079      2.0249606    -16.5647328
X       -1.7967113      2.7346022    -15.9301181
X       -1.8665142      5.1549063    -15.6119052
P        1.7863079     -1.7092996    -13.6831270
O        2.8153416     -0.8534138    -12.8071237
C        4.2160941     -1.0862177    -12.9479944
X        5.0330562     -0.5601010    -11.7554125
X        4.4131380      0.8869243    -10.0111704
X        1.9318887      1.0217860     -9.1971566
X        1.7870911      2.0973037     -6.9956667
P        4.8209596     -3.7705765     -9.6366313
O        5.4261633     -3.5384743     -8.1672437
C        6.4588195     -4.4448482     -7.7527006
X        6.9190196     -4.2141587     -6.3304967
X        6.3950040     -5.1599946     -4.2663788
X        5.7635867     -7.6870815     -4.0721112
X        6.8630208     -8.7270242     -2.1300753
P       10.5010713     -5.5080177     -6.7102474
O       11.0593043     -5.7339173     -5.2585132
C       12.4600064     -5.9735673     -5.0213398
X       12.8019250     -5.9810626     -3.5290592
X       11.9390684     -5.0409759     -1.5937261
X        9.1875192     -4.1912509     -0.5043753
P       12.3930572     -9.7001831     -2.7314684
O       12.6026117    -10.0526990     -1.1765752
C       12.0194524    -11.1953486     -0.5640905
X       12.3088099    -11.1668048      0.9036232
X       14.1273581    -10.3494921      2.1869955
X       15.6409116     -8.3339930      1.4663578
X       16.6299317     -7.2361453      3.4166753
P        9.3524657     -9.2525251      2.1847924
O        9.4178813     -8.9759260      3.7676523
C        9.2960505    -10.0215607      4.7362182
X        8.9115297     -9.5245305      6.1383528
X        8.8937220     -7.4345790      7.2070603
X        8.6041420     -5.1374576      5.9385170
X        8.0937378     -3.3014239      7.4965106
P        5.0468734     -9.6944923      5.7292818
O        4.3059189     -8.8724501      6.9008993
C        3.7839021     -9.4912454      8.0729573
X        3.0341001     -8.4950762      8.9493509
X        2.8951320     -6.1704739      9.0269071
X        3.4328927     -4.0843608      6.9532930
P       -0.4172611     -8.8128025      7.3915577
O       -1.2594588     -7.5290079      7.7262393
C       -1.9942394     -7.3150114      8.9511304
X       -2.5763714     -5.9257175      9.0411009
X       -2.1731105     -3.7746879      8.1290794
X       -0.7942436     -2.8666905      5.5676981
P       -5.7505250     -6.7235894      6.9929710
O       -6.7256300     -5.4802496      6.7616777
C       -8.0869658     -5.5955697      7.1770450
X       -8.8418452     -4.2493959      7.1339729
X       -8.4526702     -2.0944124      7.9449671
X       -6.1393856     -0.2372762      8.4909804
P       -9.9469639     -4.3000669      3.4825308
O      -11.4501389     -3.8245862      3.2023788
C      -11.7866677     -2.4976587      2.7919314
X      -13.1373644     -2.4925365      2.0562692
X      -14.1671999     -3.8707084      0.4420238
X      -13.4701673     -6.6866229     -0.3628229
P      -15.3600485     -2.2299611      5.2134379
O      -16.5110209     -1.1134907      5.0247915
C      -17.4326121     -1.1354531      3.9271189
X      -18.4388336      0.0014841      4.0484350
X      -19.7142928      0.9422882      5.7523024
X      -19.4242576      0.9850220      8.7528179
P      -16.4444053      2.6112712      2.0826998
O      -17.3792107      3.2930708      0.9805481
C      -16.9057604      3.6169963     -0.3354235
X      -16.0710665      2.4712020     -0.8497417
X      -16.4462262      0.5745990     -2.1575356
X      -18.6809469     -0.0621129     -4.0412661
P      -13.9940504      4.4100320     -3.4087738
O      -13.4381128      3.4367929     -4.5703537
C      -14.2784216      3.0125965     -5.6544939
X      -14.7951623      4.1399953     -6.5222086
X      -15.2523460      6.3932738     -6.1592079
X      -14.2150984      8.4056597     -4.0936590
P      -11.7810264      4.4296116     -8.8927700
O      -11.5729606      5.9027521     -9.4096888
C      -11.0865661      6.1231903    -10.7564966
X      -10.5264351      7.5219586    -11.0003713
X      -11.1174062      9.6774469    -10.2621376
X      -12.3655420     10.1775552     -7.9781703
X      -12.7888519     12.2584696     -7.4011533
P       -6.9417804      7.0228388     -9.5345269
O       -6.5533658      8.1600343     -8.5216456
C       -6.9102783      8.0735434     -7.0980820
X       -6.3209692      6.8103690     -6.4511306
X       -5.2278587      4.8624975     -7.2734060
X       -3.9162340      4.8213443     -9.5386552
X       -1.8913790      4.0272785     -9.5209091
P       -3.5392335      8.5381317     -4.5890320
O       -3.5205867      8.0470180     -3.0647611
C       -3.8005611      8.9583927     -2.0051584
X       -4.0232209      8.2412093     -0.6718135
X       -4.9519253      6.1576004     -0.0541570
X       -5.2652775      3.4704320     -1.3802611
P       -0.3232160      7.8071266      0.2389973
O       -0.1850060      6.6488980      1.3550006
C       -0.9643090      6.5732779      2.5368909
X       -0.3940714      5.5598332      3.5254080
X        1.1253405      3.7693339      3.4462569
X        2.8690982      3.3037217      1.5429777
X        4.5055967      1.9255916      1.9578395
P        1.2763541      8.0583180      5.8331133
O        1.7170670      7.4539317      7.2592851
C        1.5291551      8.0571111      8.5211422
X        1.9372873      7.0952902      9.6547142
X        2.0523390      4.7813584      9.7812414
X        2.6859481      3.3825423      7.6586451
X        2.8444328      0.9628916      8.0781228
P        5.6135641      7.9365964      9.8019178
O        6.4454096      6.9678072     10.8345154
C        7.7301764      7.3404135     11.4486688
X        8.8515798      7.6463632     10.4810722
X        9.3496400      9.5522550      9.2134030
X        8.6260986     12.4720968      9.5330831
P       11.9588644      6.4635471     12.5271327
O       12.9029497      5.5173765     11.6281952
C       13.2152927      4.1847768     12.0096334
X       14.2713187      3.5287671     11.0848949
X       16.6220453      3.2990161     11.1568680
X       18.4507838      3.2426765     13.5458673
P       12.9881699     -0.0806640     11.4148685
O       13.8261862     -1.1355528     10.6065999
C       13.2121188     -2.1687568      9.8278964
X       14.2096946     -2.8088524      8.9097577
X       16.2278398     -2.1714696      7.9404678
X       17.9451062     -0.5995156      9.1077352
X       20.1914830     -0.8017128      8.0754740
   142
  Step:          450 Total energy:    2038.8445229856120      Temperature:   0.63142986334833628     
O       -3.8713857     -5.8116007    -15.2010347
C       -2.6386641     -5.3455538    -14.6176222
X       -1.5255553     -5.2673059    -15.6673481
X       -1.1367742     -6.2381771    -17.7429684
X       -3.0234750     -7.0924755    -19.3881324
X       -2.0379095     -8.0654277    -21.4298452
P       -1.8070020     -1.5567408    -16.6197169
O       -0.8818540     -1.2350602    -17.8493722
C        0.5101767     -1.2964568    -17.8640480
X        1.2273696     -0.1285135    -17.1914905
X        0.6332817      2.0934417    -16.6956599
X       -1.8077076      2.7241062    -15.9116164
X       -1.8960587      5.1498457    -15.5852461
P        1.7822167     -1.6657980    -13.7209490
O        2.8676948     -0.8988660    -12.8303106
C        4.2772632     -1.0383221    -12.9498694
X        4.9233353     -0.5536159    -11.6581725
X        4.4394086      0.8797411     -9.8870031
X        1.9169579      1.0108037     -9.1965880
X        1.7946469      2.0724971     -7.0187522
P        4.8008220     -3.8048119     -9.6514899
O        5.3657308     -3.5505452     -8.2181777
C        6.4584946     -4.3982942     -7.7833900
X        6.8707937     -4.1318598     -6.3340394
X        6.4446620     -5.1528770     -4.2648026
X        5.7764509     -7.6848528     -4.0364519
X        6.8933140     -8.7395431     -2.1415355
P       10.4798817     -5.4633889     -6.7182175
O       11.0547234     -5.7853773     -5.2621793
C       12.4534386     -6.0004806     -5.0582631
X       12.8112497     -5.9672529     -3.5650231
X       11.9128944     -5.0874506     -1.5615304
X        9.1989950     -4.1814435     -0.4949807
P       12.2927699     -9.7317587     -2.7224503
O       12.5506098    -10.0974039     -1.2016733
C       11.9225065    -11.2048815     -0.5845833
X       12.3294715    -11.2565152      0.8765279
X       14.1399784    -10.3932383      2.1119646
X       15.6540601     -8.3646045      1.4510811
X       16.6258812     -7.2496315      3.3904605
P        9.3049973     -9.2268051      2.1340415
O        9.4193554     -9.0421797      3.7358466
C        9.2466942    -10.0654031      4.7072867
X        8.8531331     -9.5168127      6.1204529
X        8.7865713     -7.4046760      7.1488671
X        8.6542746     -5.1047429      5.9243187
X        8.0812643     -3.2728094      7.4541029
P        5.0428828     -9.7464689      5.7391091
O        4.3764140     -8.8580870      6.8553884
C        3.8318696     -9.4553314      8.0279674
X        3.0768837     -8.4832426      8.9339300
X        2.8662701     -6.1343486      9.0863483
X        3.4194695     -4.0742521      6.9659988
P       -0.4235133     -8.8060791      7.3766457
O       -1.2769765     -7.5087086      7.7000416
C       -1.9721023     -7.3238060      8.9534253
X       -2.6380843     -5.9537164      8.9880808
X       -2.1559567     -3.8390179      8.1286365
X       -0.8081576     -2.8815838      5.5599254
P       -5.7438028     -6.7094999      6.9930434
O       -6.6935688     -5.4772612      6.6885805
C       -8.0680854     -5.5948174      7.1332741
X       -8.8239357     -4.2713154      7.2149470
X       -8.4479207     -2.1123643      8.0115336
X       -6.1307150     -0.2387472      8.4913380
P       -9.9764608     -4.2977870      3.4907782
O      -11.4927191     -3.8357570      3.1981214
C      -11.7915090     -2.5009993      2.7710379
X      -13.1239769     -2.4633093      2.0577682
X      -14.0962479     -3.8999663      0.4742479
X      -13.4403626     -6.6948108     -0.3866151
P      -15.3359494     -2.1936089      5.2491332
O      -16.4627493     -1.0927972      5.0320993
C      -17.4316636     -1.1465274      3.9780197
X      -18.3989309      0.0152891      4.0508388
X      -19.6844864      1.0014897      5.7423511
X      -19.4511694      0.9957323      8.7454651
P      -16.4447472      2.7034287      2.0807349
O      -17.3733590      3.3532438      0.9866096
C      -16.8254921      3.6527146     -0.3115445
X      -15.9755184      2.4944884     -0.8329075
X      -16.4172667      0.5981403     -2.1634268
X      -18.6899297     -0.0666074     -4.0352422
P      -13.9902397      4.4197874     -3.4444623
O      -13.4437320      3.4981357     -4.5927108
C      -14.2377291      3.0054308     -5.6502435
X      -14.8175267      4.1822684     -6.4940358
X      -15.2608329      6.4854513     -6.1542256
X      -14.1971010      8.4201757     -4.0512703
P      -11.7607784      4.4367062     -8.8691768
O      -11.5734304      5.9431589     -9.4336925
C      -10.9934987      6.1194866    -10.6946698
X      -10.5089175      7.5269314    -10.9229161
X      -11.0943748      9.7112777    -10.2244360
X      -12.3804111     10.1710253     -7.9958919
X      -12.7596918     12.2687342     -7.3850660
P       -6.9704765      7.0261297     -9.5436715
O       -6.5708115      8.1538451     -8.4839467
C       -6.9457208      7.9963037     -7.1244207
X       -6.3306403      6.7703825     -6.5034364
X       -5.1978086      4.8780216     -7.2453175
X       -3.9287044      4.8010739     -9.5447388
X       -1.9244970      4.0046334     -9.5063639
P       -3.5173233      8.5288914     -4.5621459
O       -3.4563192      8.1151303     -3.0496951
C       -3.8399943      9.0118702     -1.9847895
X       -4.0085589      8.1854341     -0.7182937
X       -4.8797064      6.1208016     -0.0641808
X       -5.2264412      3.4477403     -1.3778193
P       -0.3013187      7.8254583      0.2743395
O       -0.1210550      6.6811190      1.3676652
C       -1.0146646      6.4764700      2.4729883
X       -0.4414281      5.5439776      3.5261471
X        1.1284483      3.7955511      3.4744954
X        2.8767814      3.3026635      1.5422512
X        4.4723376      1.8710019      1.9623803
P        1.2382589      8.0743039      5.8526940
O        1.6376143      7.3806693      7.2419653
C        1.5806857      8.0531162      8.4971112
X        1.9140673      7.0903563      9.6513031
X        2.0026399      4.7679835      9.8194683
X        2.6918587      3.3853857      7.6657658
X        2.8201214      0.9963088      8.0756286
P        5.5937869      7.9229381      9.8626966
O        6.4623817      7.0025561     10.7586096
C        7.7179546      7.2510883     11.4373135
X        8.8259305      7.6329369     10.4272453
X        9.4515020      9.6116757      9.2590464
X        8.6156614     12.4783922      9.5229343
P       11.9181520      6.4817964     12.4696099
O       12.9335975      5.5181773     11.6413341
C       13.2753817      4.2065056     11.9831676
X       14.3126527      3.5189976     11.0723387
X       16.6556729      3.2371761     11.1444623
X       18.4426932      3.2465204     13.5427618
P       12.9705452     -0.0933567     11.4649134
O       13.7893278     -1.1594507     10.5577935
C       13.1781619     -2.2359782      9.8680568
X       14.2047679     -2.8692006      8.9355209
X       16.2532540     -2.1834666      7.9500706
X       18.0036909     -0.5851747      9.1016486
X       20.1778513     -0.7947060      8.0525408
   142
  Step:          475 Total energy:    2035.8750616076809      Temperature:   0.59285940754656552     
O       -3.9045472     -5.7612958    -15.2341009
C       -2.7083761     -5.3557878    -14.5694582
X       -1.5661178     -5.2620740    -15.6008973
X       -1.1848144     -6.1762918    -17.7369453
X       -2.9828253     -7.0905074    -19.4029592
X       -2.1000226     -8.0830688    -21.4392073
P       -1.8177082     -1.5277176    -16.5958736
O       -0.8822615     -1.2189508    -17.8800398
C        0.5533803     -1.3730921    -17.8212930
X        1.1729347     -0.1092887    -17.2040073
X        0.5674963      2.1012447    -16.7730112
X       -1.7941401      2.7196674    -15.9078204
X       -1.9415221      5.1468573    -15.5512164
P        1.7820753     -1.6504286    -13.7606187
O        2.8415301     -0.8840210    -12.8561232
C        4.2759887     -1.0218961    -12.8942826
X        4.9397949     -0.5536859    -11.6063662
X        4.4347338      0.8674054     -9.8392639
X        1.9019993      0.9975432     -9.2057896
X        1.7937888      2.0634882     -7.0132663
P        4.7530601     -3.8118585     -9.6992391
O        5.3448890     -3.6170816     -8.2059061
C        6.4718499     -4.3587356     -7.7526012
X        6.8669115     -4.0770214     -6.3432388
X        6.4550767     -5.1433673     -4.3007279
X        5.7862811     -7.6693349     -4.0157885
X        6.9253008     -8.7636329     -2.1360358
P       10.4199993     -5.4067451     -6.7028923
O       11.0725427     -5.8370057     -5.2871125
C       12.4473056     -6.0256572     -5.0248215
X       12.8206433     -6.0326475     -3.5747510
X       11.8999540     -5.1202051     -1.5957474
X        9.2090483     -4.1721682     -0.4887619
P       12.2122121     -9.7509287     -2.7566931
O       12.4792420    -10.0835877     -1.2252393
C       11.8978438    -11.2462792     -0.5989111
X       12.3162891    -11.2725508      0.8782428
X       14.1593034    -10.4842761      2.0632422
X       15.6502050     -8.3980220      1.4204058
X       16.6232500     -7.2579017      3.3719812
P        9.3026035     -9.2290516      2.1360571
O        9.3830770     -9.0629996      3.7201037
C        9.2000067    -10.0757862      4.6832968
X        8.7699048     -9.4980242      6.0167063
X        8.7857315     -7.4235411      7.0965060
X        8.7007289     -5.0663888      5.9108391
X        8.0645611     -3.2458411      7.4142620
P        5.0732832     -9.7882999      5.7387403
O        4.3554022     -8.8386671      6.8412439
C        3.8298925     -9.4444840      8.0353495
X        3.1010965     -8.4504271      8.8918439
X        2.9190097     -6.1176609      9.0917982
X        3.4062172     -4.0661791      6.9885818
P       -0.4070218     -8.8121247      7.3703970
O       -1.2762701     -7.4716353      7.6712034
C       -2.0142398     -7.3523846      8.8808694
X       -2.6504307     -5.9714100      9.0290519
X       -2.2046800     -3.8887119      8.1203105
X       -0.8221635     -2.8910909      5.5484541
P       -5.7593109     -6.7176707      6.9471228
O       -6.6735915     -5.4316652      6.7466649
C       -8.0394975     -5.5615827      7.1394550
X       -8.8388807     -4.2977677      7.2133217
X       -8.4574250     -2.1121501      8.0201396
X       -6.1185467     -0.2422619      8.4905710
P      -10.0137125     -4.3009333      3.5001244
O      -11.4757817     -3.7995996      3.2169753
C      -11.7698030     -2.4741543      2.7944925
X      -13.1033407     -2.5046016      2.1179993
X      -14.0773879     -3.8756643      0.4653989
X      -13.4144097     -6.7044231     -0.4081894
P      -15.3048437     -2.1469758      5.2396161
O      -16.4465017     -1.0530292      5.0693037
C      -17.3729038     -1.1268225      3.9801227
X      -18.3786371      0.0090129      4.0470670
X      -19.6432793      1.0774369      5.7434371
X      -19.4718118      1.0077509      8.7334495
P      -16.4541203      2.7686041      2.1300654
O      -17.3161408      3.4197538      0.9444001
C      -16.7247702      3.6935041     -0.3243179
X      -15.9493425      2.5117619     -0.8556316
X      -16.4432647      0.6184239     -2.1450650
X      -18.6877237     -0.0642666     -4.0150050
P      -13.9963500      4.4643744     -3.4558212
O      -13.4385035      3.5103219     -4.6445697
C      -14.2888456      3.0535792     -5.6850931
X      -14.7581961      4.2115789     -6.5197249
X      -15.2376839      6.4535533     -6.0980432
X      -14.1798530      8.4353472     -4.0171692
P      -11.7659128      4.4708285     -8.8216077
O      -11.5526972      5.9146023     -9.4202279
C      -10.9378161      6.1194070    -10.6773966
X      -10.4411140      7.5626237    -10.8879895
X      -11.0853117      9.7229729    -10.1917940
X      -12.4159070     10.2061402     -7.9866843
X      -12.7100331     12.2415103     -7.3934492
P       -6.9921813      7.0216929     -9.5723556
O       -6.6010327      8.1211692     -8.4687950
C       -6.9981693      7.9630823     -7.1337931
X       -6.3375008      6.7422070     -6.4690321
X       -5.1658180      4.8594627     -7.1956563
X       -3.9586155      4.7983040     -9.5720574
X       -1.9234620      3.9679769     -9.4871434
P       -3.4833400      8.5418593     -4.5885184
O       -3.4530475      8.1019895     -3.0451969
C       -3.8276829      8.9737704     -1.9521947
X       -3.9905787      8.1999986     -0.6776183
X       -4.8159932      6.1106471     -0.0664194
X       -5.1861389      3.4259068     -1.3774952
P       -0.2947155      7.8355424      0.3067080
O       -0.0587830      6.7127390      1.4128828
C       -1.0396433      6.4506990      2.4460724
X       -0.4357483      5.5048279      3.4667829
X        1.1558782      3.7875724      3.4726390
X        2.8792101      3.2946597      1.5475925
X        4.4348035      1.8304014      1.9749921
P        1.1985918      8.0806597      5.8750461
O        1.5708567      7.3355714      7.2283966
C        1.6040072      8.0376320      8.4872031
X        1.8746019      7.0534156      9.6020375
X        1.9744451      4.7187061      9.8180533
X        2.6926129      3.4180829      7.6835070
X        2.7966123      1.0004386      8.0800525
P        5.6238826      7.9805477      9.9041905
O        6.4679155      6.8393610     10.7225276
C        7.7123941      7.2489491     11.3455651
X        8.8167535      7.6569478     10.4081352
X        9.4423985      9.6123601      9.2917432
X        8.6107598     12.4758708      9.5176006
P       11.8860935      6.4632994     12.4021309
O       12.9538090      5.5593257     11.6003877
C       13.2937814      4.2107031     12.0079461
X       14.3038936      3.5308067     11.0846562
X       16.6181539      3.1592707     11.1315883
X       18.4367456      3.2507130     13.5425173
P       12.9638623     -0.1046505     11.4955980
O       13.7454643     -1.1171962     10.5408270
C       13.2138011     -2.2642455      9.8910469
X       14.2327409     -2.9161751      8.9458387
X       16.2615333     -2.1736566      8.0463376
X       18.0217625     -0.5766048      9.1036667
X       20.1949469     -0.7889504      8.0109563
   142
  Step:          500 Total energy:    2034.2444586363474      Temperature:   0.56412536986397577     
O       -3.9473251     -5.6998761    -15.2415920
C       -2.7476502     -5.3448628    -14.5921214
X       -1.6376686     -5.2069158    -15.5972227
X       -1.1709037     -6.1934971    -17.6901512
X       -2.9697509     -7.0755114    -19.3898133
X       -2.1435894     -8.1056365    -21.4653887
P       -1.8286961     -1.5160608    -16.5962285
O       -0.9213013     -1.2614256    -17.8374521
C        0.5308329     -1.3421487    -17.8514384
X        1.2225361     -0.1695393    -17.2236331
X        0.5830897      2.0490995    -16.8483755
X       -1.8040932      2.7289765    -15.9051134
X       -1.9884210      5.1378486    -15.5185113
P        1.8073785     -1.6556256    -13.7816667
O        2.7984324     -0.7793760    -12.8558074
C        4.2268510     -1.0671726    -12.8671370
X        5.0057421     -0.5673979    -11.6498399
X        4.4143394      0.8506673     -9.8658929
X        1.8853217      0.9881776     -9.2085145
X        1.7802109      2.0593132     -6.9922328
P        4.7164708     -3.8210745     -9.7083873
O        5.2842270     -3.6766646     -8.2280253
C        6.4687294     -4.3379152     -7.8018979
X        6.8936629     -4.0890290     -6.3431050
X        6.4475954     -5.1147660     -4.2496257
X        5.8080880     -7.6525889     -3.9963990
X        6.9532594     -8.7790368     -2.1251159
P       10.3974345     -5.3623720     -6.6702703
O       11.0284080     -5.8292468     -5.2853168
C       12.4250038     -6.0805844     -5.0624180
X       12.7855611     -6.0947237     -3.5651559
X       11.8916248     -5.1489769     -1.5917748
X        9.2221916     -4.1675427     -0.4861634
P       12.1451662     -9.7668685     -2.8176728
O       12.3729528    -10.0804816     -1.2640629
C       11.9232966    -11.2694881     -0.6024545
X       12.3049115    -11.2347042      0.8705621
X       14.1567424    -10.5168372      2.0631389
X       15.6422908     -8.4295290      1.3976078
X       16.6074362     -7.2788086      3.3475855
P        9.3335147     -9.2672926      2.1467024
O        9.3379205     -8.9870487      3.7063424
C        9.1055854    -10.0828785      4.6258906
X        8.7806722     -9.5033528      5.9839269
X        8.8517206     -7.4061365      7.0233238
X        8.7433677     -5.0452851      5.8881573
X        8.0492890     -3.2194270      7.3857706
P        5.0494314     -9.7936084      5.7386748
O        4.3019406     -8.9027208      6.7770610
C        3.8116105     -9.4423493      8.0081834
X        3.0900939     -8.4606792      8.9146369
X        2.9723308     -6.1239075      9.1329346
X        3.3933725     -4.0491303      7.0047268
P       -0.3908341     -8.7833345      7.3657926
O       -1.2571307     -7.5135387      7.6793291
C       -2.0510197     -7.4186861      8.8167454
X       -2.6352833     -5.9921222      9.0142393
X       -2.2525593     -3.8697636      8.0975987
X       -0.8457074     -2.9002006      5.5370530
P       -5.7583183     -6.7233071      6.8888186
O       -6.6876357     -5.4135220      6.8754356
C       -8.0738170     -5.5906868      7.1675651
X       -8.8461710     -4.2664723      7.1781143
X       -8.4058334     -2.0710287      7.9739332
X       -6.1090939     -0.2568771      8.4928392
P       -9.9940213     -4.3251166      3.5168173
O      -11.4809851     -3.7798518      3.2726967
C      -11.7864502     -2.4402024      2.8435786
X      -13.1173632     -2.5277757      2.1119616
X      -14.0378923     -3.9325876      0.4784947
X      -13.3936543     -6.7033710     -0.4233902
P      -15.2708752     -2.1057560      5.2450377
O      -16.4410460     -1.0242876      5.0637079
C      -17.3471264     -1.0655942      3.9639018
X      -18.3640301      0.0547404      4.0218095
X      -19.6157401      1.0764250      5.7301739
X      -19.4867250      1.0229951      8.7204876
P      -16.4613595      2.8232138      2.2017823
O      -17.2382061      3.4403149      0.9483762
C      -16.6853307      3.7372474     -0.3292662
X      -15.9224794      2.5498311     -0.8916699
X      -16.4660350      0.5911331     -2.0742942
X      -18.6813766     -0.0618993     -3.9926612
P      -13.9866555      4.4963551     -3.4888513
O      -13.4782120      3.5150700     -4.6175120
C      -14.2502784      3.0508506     -5.7317091
X      -14.7826685      4.1987832     -6.5310638
X      -15.2049286      6.4458906     -6.0707297
X      -14.1570232      8.4504801     -3.9833516
P      -11.7584081      4.4833563     -8.7797682
O      -11.5124413      5.9615264     -9.3765127
C      -10.9177836      6.1592576    -10.6877862
X      -10.4455154      7.5840938    -10.9019609
X      -11.0676511      9.6922520    -10.1721816
X      -12.4415249     10.1831249     -7.9689030
X      -12.6636711     12.2810783     -7.3942522
P       -6.9618502      7.0219636     -9.5916769
O       -6.6230528      8.0732899     -8.4535919
C       -7.0321391      7.9410092     -7.0917074
X       -6.3313102      6.7153123     -6.4193189
X       -5.1707062      4.8893423     -7.2841245
X       -3.9580808      4.7901945     -9.5803110
X       -1.9510283      3.9397980     -9.4729992
P       -3.4683368      8.5527078     -4.6045920
O       -3.5015244      8.0720762     -3.0885586
C       -3.7447357      8.9406512     -1.9744748
X       -3.9783679      8.2146569     -0.6357577
X       -4.8491520      6.0976857     -0.0433872
X       -5.1477216      3.4067987     -1.3805632
P       -0.2863765      7.8582501      0.3318745
O       -0.0332960      6.7578529      1.4345715
C       -0.9736788      6.4579542      2.4680217
X       -0.3889824      5.4991960      3.4836035
X        1.1630822      3.7509027      3.4753513
X        2.8893327      3.2746359      1.5462348
X        4.4118907      1.7955056      1.9941708
P        1.1406297      8.0490080      5.8559027
O        1.5461862      7.3365786      7.2069718
C        1.5115073      7.9909071      8.4990426
X        1.9353859      7.0757432      9.6051883
X        1.9153388      4.7266251      9.8425596
X        2.6882931      3.4405941      7.6903421
X        2.7689584      0.9977274      8.0875552
P        5.6491822      7.9892347      9.9617715
O        6.4990530      6.8591198     10.6141139
C        7.6792010      7.1542381     11.3249252
X        8.7969788      7.6055738     10.4013824
X        9.4046412      9.5630789      9.2226095
X        8.6010784     12.4784810      9.5223049
P       11.8870179      6.4265175     12.3549054
O       12.9233810      5.5943966     11.5198701
C       13.2767615      4.2368645     12.0127101
X       14.2686976      3.5206000     11.1235486
X       16.5549407      3.1240697     11.1897202
X       18.4252505      3.2472798     13.5415332
P       12.9659148     -0.0999513     11.5074756
O       13.7572795     -1.0728486     10.5095506
C       13.2124871     -2.2853792      9.9513768
X       14.2514537     -2.8978445      9.0178163
X       16.2818184     -2.2356554      8.0462708
X       18.0358505     -0.5564363      9.1128499
X       20.2271132     -0.7901638      7.9632166
   142
  Step:          525 Total energy:    2030.5363654099542      Temperature:   0.58837630836710031     
O       -4.0344140     -5.6292043    -15.2387668
C       -2.7872576     -5.2300629    -14.6263921
X       -1.6541287     -5.2065204    -15.6414109
X       -1.1223896     -6.2758664    -17.6801559
X       -2.9646216     -7.0627252    -19.3779728
X       -2.1657491     -8.1234381    -21.4729301
P       -1.8471085     -1.5270824    -16.5747747
O       -0.9047676     -1.2529705    -17.8656197
C        0.5392578     -1.4208175    -17.8803270
X        1.2088309     -0.1788059    -17.3188149
X        0.5730355      2.0161306    -16.7602888
X       -1.7922490      2.7225544    -15.9135357
X       -2.0271340      5.1284507    -15.4953741
P        1.8674788     -1.6394448    -13.7555873
O        2.8535697     -0.7549936    -12.8933008
C        4.2206237     -1.0825316    -12.9459784
X        4.9287364     -0.5897239    -11.7229600
X        4.3877839      0.8316809     -9.9337992
X        1.8910292      0.9985481     -9.1845686
X        1.7594269      2.0463040     -6.9832558
P        4.6944319     -3.8401761     -9.7053370
O        5.2484885     -3.7030137     -8.1971813
C        6.4552412     -4.3764647     -7.8075530
X        6.8432643     -4.1290689     -6.3368389
X        6.4315201     -5.1123891     -4.2560526
X        5.8443561     -7.6329640     -3.9650951
X        6.9762338     -8.7837691     -2.1241488
P       10.4456139     -5.3302781     -6.6501174
O       10.9652712     -5.7829291     -5.2138234
C       12.3675494     -6.1367745     -5.0575730
X       12.7320553     -6.1039932     -3.5783742
X       11.9182430     -5.2039522     -1.5825866
X        9.2411131     -4.1574072     -0.4773077
P       12.0857516     -9.7936702     -2.8639074
O       12.2886666    -10.0764869     -1.3069349
C       11.9003620    -11.2642831     -0.6274550
X       12.3304451    -11.2342911      0.8511463
X       14.1520944    -10.4511485      2.1374349
X       15.6379085     -8.4561345      1.3880149
X       16.5883367     -7.3131898      3.3198848
P        9.3413990     -9.2694255      2.1330021
O        9.3364664     -8.9693661      3.6700763
C        9.0861268    -10.0359125      4.6192161
X        8.8014752     -9.4937255      6.0088465
X        8.9707414     -7.3616828      7.0245184
X        8.7737979     -5.0145678      5.8609676
X        8.0409408     -3.2079104      7.3592034
P        5.0091062     -9.8038543      5.7008417
O        4.2133034     -8.8955254      6.7918875
C        3.7668777     -9.4829955      8.0214373
X        3.0984456     -8.4719747      8.9404295
X        2.9869161     -6.1450261      9.1272903
X        3.3807707     -4.0219021      7.0197574
P       -0.3413029     -8.7922974      7.3528687
O       -1.2502962     -7.4764279      7.6745807
C       -2.0543259     -7.4057826      8.8636977
X       -2.7011590     -6.0380749      8.9239499
X       -2.1953026     -3.9084447      8.0825683
X       -0.8725389     -2.9171370      5.5330193
P       -5.7395197     -6.6894334      6.8439347
O       -6.7475540     -5.4699477      6.9663871
C       -8.1331758     -5.5828081      7.2012059
X       -8.8389975     -4.2486942      7.1592343
X       -8.4572456     -2.0318469      7.8942073
X       -6.0919595     -0.2615115      8.4993951
P       -9.9732453     -4.3508227      3.5205566
O      -11.4672374     -3.8302211      3.3010820
C      -11.7852569     -2.5097207      2.8403248
X      -13.1320405     -2.4744317      2.1178457
X      -14.0527463     -3.9088487      0.4878119
X      -13.3677828     -6.7172200     -0.4430640
P      -15.2548479     -2.0627880      5.2571657
O      -16.4240817     -1.0199424      5.0168435
C      -17.3156868     -1.0269644      3.8995499
X      -18.3602614      0.0890070      3.9936785
X      -19.6791440      1.0333954      5.6891948
X      -19.5016045      1.0363231      8.7091372
P      -16.4324367      2.8809936      2.2528479
O      -17.2445251      3.4295905      0.9828032
C      -16.6779351      3.7576091     -0.2972283
X      -15.9133753      2.5613643     -0.8868207
X      -16.4709897      0.6008170     -2.0351013
X      -18.6689475     -0.0651527     -3.9767854
P      -13.9872341      4.5111040     -3.5331354
O      -13.4441357      3.4945843     -4.6288547
C      -14.2575428      2.9772628     -5.7500389
X      -14.8089570      4.2003501     -6.5333689
X      -15.1764359      6.4902764     -6.0634930
X      -14.1331272      8.4494119     -3.9648775
P      -11.7182585      4.5170856     -8.7827236
O      -11.4625477      5.9709448     -9.3302294
C      -10.9851649      6.1380364    -10.6835103
X      -10.4882412      7.5581823    -10.9311569
X      -11.0696816      9.6903579    -10.1600798
X      -12.4571738     10.1679824     -7.9466845
X      -12.6257580     12.3123229     -7.4025464
P       -6.9012376      7.0201885     -9.5911590
O       -6.6114908      8.0483667     -8.3860586
C       -7.0315829      7.9210768     -7.0323983
X       -6.3575330      6.7350497     -6.4468611
X       -5.1973093      4.8514629     -7.2628119
X       -3.9381262      4.7763116     -9.5987281
X       -1.9784621      3.9090643     -9.4716588
P       -3.4999623      8.5351565     -4.6059169
O       -3.5244787      8.0488144     -3.0650812
C       -3.6895952      8.9282375     -1.9694195
X       -3.9773507      8.1449801     -0.6848472
X       -4.8774407      6.0600841     -0.0583009
X       -5.1078374      3.4034374     -1.3783904
P       -0.2859703      7.8961923      0.3411635
O       -0.0203301      6.7644342      1.4624893
C       -0.9244527      6.4751031      2.5096202
X       -0.3565192      5.4974005      3.5280118
X        1.1621832      3.7153843      3.4684542
X        2.8868171      3.2502542      1.5306804
X        4.4151892      1.7677225      2.0223661
P        1.0739159      8.0144921      5.8288709
O        1.5597350      7.3755878      7.2391850
C        1.5077310      8.0252780      8.5224552
X        1.9031656      7.0718624      9.6274119
X        1.9736905      4.7374619      9.8427223
X        2.6662187      3.4241735      7.7004881
X        2.7358705      1.0249890      8.1013664
P        5.6242370      8.0377823      9.9734626
O        6.5486875      6.8349403     10.5504792
C        7.7357944      7.0779426     11.3458530
X        8.8130660      7.5786608     10.3381389
X        9.2306486      9.5817734      9.2136106
X        8.5836991     12.4690343      9.5319203
P       11.8848282      6.4262552     12.3323368
O       12.8967298      5.5509780     11.4572851
C       13.1997189      4.2551206     11.9932202
X       14.2027316      3.5296764     11.1465587
X       16.5191185      3.1185642     11.2279379
X       18.4098779      3.2550744     13.5560052
P       12.9718751     -0.0757172     11.5096685
O       13.7665207     -1.0066310     10.5099055
C       13.2597024     -2.2589200      9.9940372
X       14.2954453     -2.8827501      9.0858464
X       16.3044945     -2.2158293      8.1203249
X       18.0764652     -0.5489050      9.0995957
X       20.2204769     -0.7800419      7.9453795
   142
  Step:          550 Total energy:    2030.6778707321678      Temperature:   0.57198992366775714     
O       -4.1029902     -5.5422084    -15.2294891
C       -2.8039694     -5.1573750    -14.7038664
X       -1.6505378     -5.2156016    -15.6997548
X       -1.1215769     -6.3654554    -17.6604826
X       -2.9683086     -7.0619815    -19.3891735
X       -2.1952796     -8.1219175    -21.4465237
P       -1.8178220     -1.5432682    -16.5930746
O       -0.9239570     -1.2495653    -17.8469224
C        0.4635155     -1.4001773    -17.9219084
X        1.2147161     -0.2167501    -17.2993749
X        0.6027796      1.9846430    -16.6936069
X       -1.7954037      2.7144666    -15.9248584
X       -2.0528871      5.1106331    -15.4786812
P        1.8675930     -1.6194178    -13.7700918
O        2.9155640     -0.7557394    -12.9648839
C        4.2935794     -1.0712911    -13.0532483
X        4.9295722     -0.6443862    -11.7490047
X        4.3713133      0.8166200    -10.0113261
X        1.8943883      1.0162370     -9.1672408
X        1.7342057      2.0407993     -6.9635779
P        4.6820459     -3.8719883     -9.6780308
O        5.2593880     -3.6972315     -8.2100789
C        6.3605141     -4.4906093     -7.7759373
X        6.8034614     -4.1367736     -6.3700805
X        6.4148262     -5.0475026     -4.2602436
X        5.8636988     -7.6358366     -3.9494890
X        7.0055116     -8.7799426     -2.1174707
P       10.4741300     -5.3004922     -6.6251100
O       10.9323297     -5.7147579     -5.1856902
C       12.2787436     -6.1246823     -4.9943406
X       12.7075339     -6.1467425     -3.5723300
X       11.9287096     -5.2338753     -1.5985016
X        9.2622229     -4.1501659     -0.4708741
P       12.0179414     -9.8181788     -2.9013997
O       12.2581722    -10.0671227     -1.3285113
C       11.9549940    -11.2745813     -0.6368127
X       12.2799522    -11.2485313      0.8427492
X       14.0887960    -10.4484587      2.1548684
X       15.6231417     -8.4855569      1.3663755
X       16.5763930     -7.3427751      3.2979060
P        9.3075019     -9.2424671      2.0924090
O        9.3678450     -9.0129294      3.6927878
C        9.1530517    -10.0041340      4.6834578
X        8.7871719     -9.4065211      6.0052436
X        9.0493604     -7.3044459      7.0468287
X        8.7980794     -4.9900627      5.8304845
X        8.0405489     -3.2054356      7.3331060
P        4.9437080     -9.7928292      5.6932157
O        4.2152088     -8.9563091      6.8060588
C        3.7743041     -9.5225686      8.0237781
X        3.1072691     -8.4817907      8.9412543
X        2.9787615     -6.1601006      9.0624366
X        3.3692585     -3.9955680      7.0367448
P       -0.3241501     -8.7813914      7.3596548
O       -1.1826960     -7.5264064      7.6725493
C       -2.0759760     -7.4337273      8.7960328
X       -2.6768272     -6.0759913      8.9643442
X       -2.2220397     -3.9291424      8.1066655
X       -0.8937428     -2.9300491      5.5251902
P       -5.7410442     -6.6654050      6.7966215
O       -6.7861022     -5.4573745      6.9691166
C       -8.1999624     -5.5581612      7.2807410
X       -8.8927925     -4.2164300      7.1802948
X       -8.4580426     -2.0240448      7.8440006
X       -6.0701908     -0.2635085      8.5071788
P       -9.9587130     -4.3696783      3.5106520
O      -11.4723945     -3.8736203      3.2581014
C      -11.7629888     -2.5527833      2.8522901
X      -13.0748809     -2.5478314      2.0959566
X      -14.0284387     -3.9470755      0.4765101
X      -13.3495150     -6.7209243     -0.4542222
P      -15.2514793     -2.0280836      5.2616903
O      -16.4406011     -0.9746613      5.0053438
C      -17.2917095     -0.9774745      3.8410130
X      -18.3685078      0.1010967      3.9874255
X      -19.7146350      0.9542854      5.6909098
X      -19.5156736      1.0507020      8.6938437
P      -16.4080965      2.9448195      2.2793472
O      -17.2441106      3.4427631      1.0248180
C      -16.6993466      3.7414586     -0.2571532
X      -15.9238428      2.5639948     -0.8137313
X      -16.4435251      0.6625606     -2.0569227
X      -18.6569514     -0.0657558     -3.9589375
P      -13.9839158      4.4908678     -3.5877548
O      -13.4496042      3.4722266     -4.6754136
C      -14.3182672      3.0655993     -5.7008626
X      -14.7498902      4.2160945     -6.5210846
X      -15.1474140      6.4623343     -6.0506287
X      -14.1092426      8.4426060     -3.9527956
P      -11.6727166      4.5220322     -8.7743128
O      -11.4233919      5.9927934     -9.3252479
C      -11.0536155      6.1442577    -10.6917840
X      -10.5101171      7.5349996    -10.9100429
X      -11.1412176      9.6519515    -10.1174016
X      -12.4476671     10.2094762     -7.9326062
X      -12.5895272     12.2904864     -7.4200698
P       -6.8817056      7.0268856     -9.5511751
O       -6.5627275      8.0924079     -8.4158551
C       -7.0330468      7.8750870     -7.0536531
X       -6.3940536      6.6933761     -6.4253147
X       -5.2289180      4.8549597     -7.2952795
X       -3.9611462      4.7750360     -9.5943213
X       -1.9663102      3.8593800     -9.4782766
P       -3.5671311      8.5124595     -4.5798874
O       -3.4835520      8.0080786     -3.0838369
C       -3.7623835      8.8764329     -2.0079773
X       -3.9233919      8.1448374     -0.6944164
X       -4.8410933      6.0913384     -0.0253074
X       -5.0737176      3.3960805     -1.3790805
P       -0.2805187      7.9058580      0.3618116
O       -0.0307095      6.7760056      1.4656973
C       -0.9376080      6.4890258      2.5213373
X       -0.3722586      5.4616654      3.5131245
X        1.1674582      3.6978171      3.4469695
X        2.8851685      3.2043060      1.5241345
X        4.4241032      1.7530093      2.0481479
P        1.0532040      8.0323838      5.8837390
O        1.5829430      7.4138633      7.2320630
C        1.5246359      8.0712632      8.4953555
X        1.8724393      7.1006479      9.6642286
X        2.0512877      4.7745409      9.8712420
X        2.6435494      3.4177574      7.7004260
X        2.7022645      1.0198140      8.1236460
P        5.6142052      8.0583901      9.9868759
O        6.4966094      6.8720573     10.5296975
C        7.7378743      7.0171980     11.2095422
X        8.8227458      7.5285191     10.3111856
X        9.1627658      9.5094833      9.1365365
X        8.5607372     12.4676209      9.5407008
P       11.8817241      6.4671094     12.2963159
O       12.8298262      5.4711999     11.4802656
C       13.1151991      4.2139783     11.9627828
X       14.1613311      3.5238110     11.0969787
X       16.4985000      3.1489705     11.2690537
X       18.3922895      3.2641420     13.5704249
P       12.9737890     -0.0422637     11.5194048
O       13.8012406     -0.9715655     10.5247392
C       13.3007117     -2.2147571     10.0443827
X       14.3263674     -2.8934956      9.1597587
X       16.3435807     -2.2117415      8.1435547
X       18.1113510     -0.5341324      9.0965805
X       20.2201738     -0.7719618      7.9302139
   142
  Step:          575 Total energy:    2029.8963702969008      Temperature:   0.60608883192975949     
O       -4.0910876     -5.4519314    -15.2905251
C       -2.8310750     -5.1863115    -14.7079023
X       -1.6776134     -5.2244461    -15.7182495
X       -1.1218189     -6.4384566    -17.6548279
X       -2.9984709     -7.0579870    -19.3894406
X       -2.2043510     -8.1269464    -21.4296546
P       -1.7849495     -1.5457963    -16.5971967
O       -0.9236437     -1.2179816    -17.9442518
C        0.4888799     -1.3779170    -17.9312125
X        1.2002991     -0.2205041    -17.2379553
X        0.6132671      1.9702833    -16.6554823
X       -1.8075698      2.6939424    -15.9387572
X       -2.0629256      5.0905983    -15.4614994
P        1.8217092     -1.6217658    -13.8098903
O        2.9529124     -0.7760441    -13.0585321
C        4.3694129     -1.1400440    -13.0572142
X        5.0479617     -0.6448944    -11.7675359
X        4.3760377      0.7700993    -10.0404643
X        1.8971980      1.0325485     -9.1750712
X        1.7178245      2.0398608     -6.9274075
P        4.6537369     -3.9046729     -9.6795435
O        5.2926171     -3.6899069     -8.2426856
C        6.3139502     -4.5698631     -7.7741825
X        6.7595827     -4.1961157     -6.3679348
X        6.4130472     -5.0882398     -4.2373478
X        5.8761757     -7.6217556     -3.9581063
X        7.0371783     -8.7661293     -2.1025323
P       10.4181135     -5.2477663     -6.6187557
O       10.9683385     -5.6442199     -5.1522792
C       12.2991261     -6.1253974     -5.0272089
X       12.7016309     -6.1670447     -3.5366244
X       11.9333783     -5.2365370     -1.5042926
X        9.2857910     -4.1450835     -0.4694343
P       11.9502151     -9.8358198     -2.8969272
O       12.2593921    -10.1249647     -1.3632278
C       11.9313671    -11.3293967     -0.6631613
X       12.2524887    -11.2394067      0.8026664
X       14.0112246    -10.4496426      2.1213493
X       15.5964457     -8.5195429      1.3406876
X       16.5771009     -7.3590441      3.2789556
P        9.2636210     -9.2228589      2.0907302
O        9.3809356     -9.0054881      3.6693460
C        9.1931976     -9.9839416      4.6800621
X        8.7681381     -9.3439771      6.0272979
X        9.0311359     -7.2478736      7.0610186
X        8.8180805     -4.9719664      5.7986050
X        8.0459332     -3.1997159      7.3080172
P        4.9261677     -9.7880487      5.6716067
O        4.2155520     -8.9567150      6.8535552
C        3.8312564     -9.5617017      8.0756243
X        3.1116144     -8.5417145      8.9489089
X        2.9560741     -6.1904731      9.0648790
X        3.3606260     -3.9672683      7.0499464
P       -0.2983501     -8.8124216      7.3474255
O       -1.1633459     -7.4898584      7.6714577
C       -2.1093148     -7.4850899      8.7767256
X       -2.6352928     -6.0954717      8.9957740
X       -2.2445704     -3.9506912      8.0972297
X       -0.9168965     -2.9443467      5.5230723
P       -5.7809351     -6.6260485      6.7695902
O       -6.8074554     -5.4126990      6.9150879
C       -8.1977587     -5.5596351      7.3312697
X       -8.9426118     -4.1793452      7.2410177
X       -8.4329662     -1.9798815      7.8468958
X       -6.0506755     -0.2717900      8.5132787
P       -9.9396787     -4.3976451      3.4908189
O      -11.4215325     -3.9240721      3.2226472
C      -11.6931311     -2.5897377      2.8210705
X      -13.0556422     -2.6189456      2.1432155
X      -14.0112143     -3.9391542      0.4450296
X      -13.3305077     -6.7273299     -0.4626729
P      -15.2723450     -1.9976873      5.2327195
O      -16.4251790     -0.9428898      5.0020098
C      -17.2615732     -0.9480059      3.8508915
X      -18.3529071      0.0986675      3.9435027
X      -19.7258427      0.8784810      5.6772082
X      -19.5270483      1.0643597      8.6848919
P      -16.3939773      2.9896867      2.3117505
O      -17.2516485      3.5179220      1.0566181
C      -16.7116074      3.7644521     -0.2509042
X      -15.9042192      2.5916819     -0.7931780
X      -16.3899363      0.6787795     -2.0794910
X      -18.6436134     -0.0653150     -3.9390244
P      -13.9963995      4.4706146     -3.5725769
O      -13.4596156      3.4301890     -4.6895166
C      -14.2955447      3.0101774     -5.7409688
X      -14.7379610      4.2457270     -6.5248048
X      -15.1450301      6.5272489     -6.0816497
X      -14.0831942      8.4385019     -3.9397873
P      -11.6318532      4.5071469     -8.7423942
O      -11.4250451      5.9753911     -9.3473170
C      -11.0114112      6.1333722    -10.6831756
X      -10.5055614      7.5272684    -10.8825330
X      -11.1540648      9.6864397    -10.1579794
X      -12.4313788     10.2118350     -7.9116126
X      -12.5624407     12.3209497     -7.4289886
P       -6.9049412      7.0494732     -9.5346403
O       -6.5416720      8.1043264     -8.4219554
C       -7.0491829      7.9353179     -7.0763456
X       -6.4277061      6.6587559     -6.4485428
X       -5.2266685      4.7910741     -7.2890589
X       -3.9533479      4.7591611     -9.5803845
X       -1.9691486      3.8272512     -9.4906633
P       -3.6361406      8.4842487     -4.5866050
O       -3.4497816      7.9295524     -3.0988691
C       -3.7889661      8.8462295     -2.0232623
X       -3.9688832      8.1440541     -0.6819312
X       -4.7470716      6.0523321     -0.0121736
X       -5.0376485      3.3924215     -1.3720477
P       -0.2686564      7.9163310      0.3930066
O       -0.0386781      6.7720630      1.4674915
C       -1.0048876      6.4274937      2.4792957
X       -0.4006083      5.4786088      3.4962671
X        1.1091564      3.6871493      3.4169648
X        2.8804304      3.1439171      1.5265807
X        4.4433755      1.7453756      2.0734453
P        1.0536345      8.0878941      5.9382444
O        1.6412117      7.3908700      7.2789853
C        1.4893781      8.0742254      8.5226255
X        1.9295951      7.1564403      9.6574207
X        2.0598678      4.8602527      9.8383748
X        2.6299524      3.4349018      7.7068564
X        2.6733615      0.9902839      8.1561360
P        5.5867268      8.1012875      9.9735810
O        6.4445260      6.8233189     10.5179724
C        7.7183938      6.9699100     11.1806372
X        8.7483503      7.5025193     10.1905301
X        9.2161419      9.5427662      9.0975064
X        8.5360041     12.4504589      9.5429444
P       11.8825603      6.5267600     12.2766030
O       12.7723024      5.4379724     11.4982256
C       13.0583793      4.1231912     11.9369383
X       14.1442860      3.5182098     11.0481098
X       16.4653359      3.2195463     11.2611292
X       18.3760235      3.2788670     13.5892284
P       12.9867272     -0.0124562     11.5302182
O       13.8287505     -0.9922985     10.5819603
C       13.3273119     -2.2095189     10.0991715
X       14.3701761     -2.8744019      9.2313017
X       16.3783044     -2.2238217      8.1557609
X       18.1072496     -0.5207124      9.1151503
X       20.2530262     -0.7660040      7.9034341
   142
  Step:          600 Total energy:    2028.9795981005559      Temperature:   0.62195246987360608     
O       -4.0736185     -5.3711446    -15.3852555
C       -2.8470828     -5.2406772    -14.7040593
X       -1.6763682     -5.2574135    -15.6925235
X       -1.1839957     -6.4397790    -17.6571345
X       -3.0473715     -7.0539842    -19.3657961
X       -2.1903722     -8.1416629    -21.4151679
P       -1.7524018     -1.5170511    -16.6513109
O       -0.9107118     -1.2595056    -17.9258604
C        0.5066695     -1.3631527    -17.9535055
X        1.1671874     -0.1627700    -17.2823523
X        0.6141061      2.0065298    -16.6270697
X       -1.8347818      2.6719442    -15.9566101
X       -2.0626947      5.0640357    -15.4543026
P        1.8129036     -1.6246924    -13.8197254
O        3.0157029     -0.8493929    -13.1050197
C        4.3928673     -1.2249472    -13.0342819
X        5.0564271     -0.6679695    -11.7791949
X        4.3912883      0.7301482    -10.0085782
X        1.9046284      1.0603346     -9.1755135
X        1.7132365      2.0246227     -6.9206981
P        4.6228226     -3.8837045     -9.7118236
O        5.3141928     -3.7271917     -8.2710887
C        6.3090550     -4.6334955     -7.7796593
X        6.7265469     -4.2418767     -6.3636876
X        6.4324674     -5.0978841     -4.1650436
X        5.8853243     -7.6391191     -3.9523213
X        7.0575904     -8.7329568     -2.1035806
P       10.3481703     -5.2033895     -6.5998816
O       11.0193272     -5.5599580     -5.1945866
C       12.3179355     -6.0636728     -4.9869418
X       12.7363498     -6.1623532     -3.5194292
X       11.9629295     -5.2793850     -1.4593284
X        9.3161861     -4.1391656     -0.4684057
P       11.8938849     -9.8425290     -2.8756285
O       12.2968671    -10.2096954     -1.3854018
C       11.8078485    -11.3934557     -0.7163530
X       12.1928395    -11.2722959      0.7717371
X       13.9691407    -10.4839007      2.0700449
X       15.5815949     -8.5352926      1.3318633
X       16.5789822     -7.3752482      3.2423020
P        9.2266374     -9.2328633      2.1023248
O        9.3616093     -8.9177151      3.6687242
C        9.1617807     -9.9468291      4.6493508
X        8.7781203     -9.3448923      6.0237767
X        8.9283115     -7.2540235      7.0386802
X        8.8324879     -4.9462936      5.7713864
X        8.0469586     -3.1928526      7.2862037
P        4.9588323     -9.7620208      5.6704789
O        4.2326776     -8.9720324      6.8529014
C        3.8726961     -9.5473402      8.1216621
X        3.1492942     -8.5430302      8.9835975
X        2.9519390     -6.2127654      8.9907436
X        3.3501135     -3.9494521      7.0747606
P       -0.3090505     -8.8182027      7.3246360
O       -1.1649223     -7.5370123      7.6669737
C       -2.0458875     -7.4839218      8.7942278
X       -2.7229183     -6.1040106      8.9308050
X       -2.2064981     -3.9765832      8.1033499
X       -0.9403135     -2.9624930      5.5205319
P       -5.8274776     -6.5759186      6.7806481
O       -6.8417256     -5.3423457      6.8752440
C       -8.1489696     -5.4865130      7.3366713
X       -8.9122742     -4.1842560      7.2564224
X       -8.4800206     -1.9572540      7.8973243
X       -6.0314978     -0.2816937      8.5204517
P       -9.8656892     -4.4408860      3.5047454
O      -11.3629865     -3.9853060      3.2098278
C      -11.7258954     -2.6322519      2.8350217
X      -13.0584965     -2.6220451      2.1402417
X      -13.9945105     -3.9399324      0.4538063
X      -13.3192854     -6.7290752     -0.4665656
P      -15.2729342     -1.9955972      5.2128454
O      -16.4035208     -0.8910057      4.9715718
C      -17.2203395     -0.9374892      3.8137151
X      -18.3421795      0.0734390      3.9404665
X      -19.7118866      0.8949601      5.6918400
X      -19.5369502      1.0720781      8.6759863
P      -16.4178043      3.0258130      2.3241970
O      -17.1974450      3.6235736      1.0706141
C      -16.6909775      3.8063749     -0.2611095
X      -15.9072736      2.6179630     -0.8081002
X      -16.3780753      0.6887850     -2.0812372
X      -18.6245807     -0.0627379     -3.9063575
P      -13.9893529      4.4272458     -3.5366085
O      -13.5075341      3.4108253     -4.6126387
C      -14.2629819      3.0357781     -5.7785901
X      -14.7630310      4.2650879     -6.5911600
X      -15.1075248      6.5315779     -6.0831681
X      -14.0587364      8.4309826     -3.9270647
P      -11.6046701      4.4775187     -8.6973271
O      -11.4643643      5.9090154     -9.3492116
C      -10.9141765      6.1339029    -10.6497321
X      -10.4742034      7.5733348    -10.8953711
X      -11.1695838      9.6799614    -10.1609185
X      -12.3997983     10.2040055     -7.9070782
X      -12.5405338     12.3715095     -7.4293897
P       -6.9418986      7.0661414     -9.5529085
O       -6.5872284      8.1240276     -8.3946152
C       -7.0200951      7.9031209     -7.0913801
X       -6.4325193      6.6557307     -6.5024551
X       -5.2565607      4.8183293     -7.2753591
X       -3.9209111      4.7283335     -9.5557291
X       -1.9842248      3.8088707     -9.5028081
P       -3.6792371      8.4419796     -4.5933041
O       -3.4920268      7.9252010     -3.1038082
C       -3.7300297      8.8207902     -2.0137754
X       -3.9884606      8.1049064     -0.6993411
X       -4.8573973      6.0439433      0.0095370
X       -5.0000488      3.3813032     -1.3663776
P       -0.2790544      7.9330534      0.4103046
O       -0.0415704      6.7612588      1.4758848
C       -1.0045982      6.4244739      2.4869790
X       -0.3976238      5.4876255      3.4936223
X        1.0733204      3.6770467      3.3828592
X        2.8586285      3.0844726      1.5304407
X        4.4732329      1.7229501      2.1078754
P        1.0710886      8.1070615      5.9819768
O        1.6439426      7.4658490      7.2924904
C        1.5426515      8.1308092      8.5365058
X        1.9234494      7.1677102      9.6346582
X        2.0293955      4.8299563      9.8475268
X        2.6299078      3.4061080      7.7189045
X        2.6440458      1.0047028      8.1812289
P        5.5934873      8.1036750      9.9642109
O        6.3645549      6.8694366     10.4857036
C        7.6525347      7.0197466     11.0952160
X        8.7329072      7.4721642     10.1030707
X        9.2256742      9.5663412      9.1062305
X        8.5136873     12.4265733      9.5485494
P       11.8667364      6.5649870     12.2401831
O       12.7596769      5.5036570     11.4762806
C       13.0170585      4.1220993     11.8956014
X       14.1347281      3.5313600     11.0571947
X       16.4376300      3.3283931     11.2542774
X       18.3551602      3.2928208     13.6091743
P       12.9989820     -0.0123637     11.5445964
O       13.8670041     -1.0115258     10.6859571
C       13.3703927     -2.2357208     10.1406645
X       14.4074725     -2.9100328      9.2521973
X       16.3683143     -2.2177543      8.1895635
X       18.1333208     -0.5189607      9.1095380
X       20.2541264     -0.7519801      7.8984584
   142
  Step:          625 Total energy:    2025.1577587356378      Temperature:   0.58399898939640393     
O       -4.0810138     -5.3077273    -15.4773296
C       -2.8641651     -5.2449414    -14.7031493
X       -1.6731732     -5.2820527    -15.6336222
X       -1.2087488     -6.3980959    -17.6518827
X       -3.1027068     -7.0754181    -19.3656768
X       -2.1742029     -8.1387240    -21.3686268
P       -1.7675989     -1.5143850    -16.6584579
O       -0.9042554     -1.2894667    -17.9952977
C        0.5671210     -1.3129219    -18.0142254
X        1.2142353     -0.1186905    -17.3074369
X        0.5828199      2.0439985    -16.6678540
X       -1.8695314      2.6486779    -15.9679697
X       -2.0625745      5.0325895    -15.4487428
P        1.8525215     -1.6367382    -13.8312253
O        3.0319319     -0.8802302    -13.0585652
C        4.3902459     -1.2586024    -13.0456025
X        4.9998774     -0.7547012    -11.7524865
X        4.3627433      0.7127155    -10.0006876
X        1.9231719      1.0871820     -9.1682561
X        1.7239726      2.0073733     -6.9214380
P        4.6049610     -3.8492568     -9.7367385
O        5.3065773     -3.7863860     -8.3048496
C        6.2850811     -4.6603775     -7.7197746
X        6.7105407     -4.2525903     -6.3493151
X        6.4230723     -5.1154408     -4.1917820
X        5.8886020     -7.6666398     -3.9513867
X        7.0791486     -8.6978602     -2.0942934
P       10.3349013     -5.1862584     -6.5939390
O       11.0158351     -5.4706919     -5.1528671
C       12.3440416     -5.9890573     -4.9661428
X       12.7563625     -6.1522763     -3.5275666
X       12.0009571     -5.3290938     -1.4654075
X        9.3486306     -4.1409151     -0.4648948
P       11.8560806     -9.8328358     -2.8636978
O       12.3202358    -10.2995391     -1.4094670
C       11.7044104    -11.3645997     -0.6844818
X       12.1130895    -11.3514446      0.7863881
X       13.9458220    -10.5220350      1.9518046
X       15.5595702     -8.5500186      1.3171789
X       16.5813666     -7.3950082      3.2092989
P        9.1976116     -9.2400154      2.1123340
O        9.3251161     -8.8631933      3.6534999
C        9.1443725     -9.8868853      4.6326457
X        8.7604796     -9.3494415      5.9803824
X        8.8231491     -7.2635453      6.9816546
X        8.8356723     -4.9256523      5.7456177
X        8.0500204     -3.1747624      7.2696548
P        5.0111165     -9.7316543      5.6857173
O        4.2672591     -8.9751353      6.8415362
C        3.9043239     -9.5627891      8.1136710
X        3.1554492     -8.5451171      8.9672057
X        2.9496396     -6.1875180      9.0389282
X        3.3417338     -3.9288810      7.0951221
P       -0.3136689     -8.8298252      7.3180569
O       -1.2251940     -7.5506571      7.6815820
C       -2.1237219     -7.5034413      8.7481159
X       -2.7163338     -6.1077686      8.9163803
X       -2.2708233     -3.9598696      8.1207741
X       -0.9588904     -2.9789357      5.5160912
P       -5.8649341     -6.5586816      6.7896498
O       -6.8093449     -5.2637690      6.8843571
C       -8.1316516     -5.4166473      7.3483229
X       -8.8910457     -4.1383982      7.2507219
X       -8.4654600     -1.9338048      7.9602375
X       -6.0220817     -0.2995481      8.5185832
P       -9.7971469     -4.4785729      3.5319910
O      -11.2983582     -4.0154998      3.1955757
C      -11.7218038     -2.6677444      2.9042047
X      -13.0255931     -2.6200807      2.1243636
X      -14.0306368     -3.9515177      0.4609677
X      -13.3129689     -6.7285888     -0.4716806
P      -15.2660649     -2.0128441      5.2019908
O      -16.3411280     -0.8860882      4.9077118
C      -17.2431663     -0.9478776      3.8016245
X      -18.3245345      0.0940044      3.9105259
X      -19.6675466      0.9336187      5.6659065
X      -19.5439278      1.0748546      8.6673259
P      -16.4337139      3.0546807      2.3278487
O      -17.1926295      3.7005480      1.0591261
C      -16.6696806      3.8633415     -0.2761277
X      -15.9096214      2.6416438     -0.7580206
X      -16.3855224      0.7033291     -2.0034422
X      -18.6085584     -0.0627738     -3.8749616
P      -13.9955859      4.4070628     -3.4757617
O      -13.5353999      3.3692809     -4.6472945
C      -14.3534728      3.0413267     -5.7993907
X      -14.6989772      4.2644009     -6.5757097
X      -15.0654439      6.4967411     -6.0945729
X      -14.0354000      8.4230028     -3.9173938
P      -11.5785704      4.4642239     -8.6669071
O      -11.4797833      5.9244881     -9.3555704
C      -10.8449196      6.1038145    -10.6486535
X      -10.4502701      7.5709196    -10.8921015
X      -11.1691787      9.6785664    -10.1775642
X      -12.3686148     10.2655084     -7.8846163
X      -12.5229955     12.3594195     -7.4349437
P       -6.9632476      7.0784521     -9.5762949
O       -6.6439927      8.1446234     -8.4388842
C       -7.0838798      7.9191669     -7.1055520
X       -6.4320187      6.6655918     -6.4475247
X       -5.2461658      4.8160769     -7.2518763
X       -3.9278137      4.7166262     -9.5490293
X       -1.9580828      3.7649995     -9.5049173
P       -3.6878511      8.4084530     -4.6108352
O       -3.5795966      7.8957839     -3.1084019
C       -3.7241924      8.7837810     -2.0207713
X       -3.9593193      8.0828190     -0.6919188
X       -4.9606055      6.0578397     -0.0097524
X       -4.9658905      3.3689162     -1.3577517
P       -0.3180404      7.9406470      0.4356341
O       -0.0625031      6.7737733      1.4584346
C       -0.9579262      6.5045151      2.5253154
X       -0.3808772      5.5038827      3.5194456
X        1.0764012      3.6357342      3.4029235
X        2.8478315      3.0201266      1.5418467
X        4.4901987      1.6934713      2.1415874
P        1.0796593      8.1287693      5.9481478
O        1.6436364      7.4926833      7.3024037
C        1.5984560      8.1713726      8.5862976
X        1.8838213      7.1672446      9.6701134
X        1.9799214      4.8081076      9.8020826
X        2.6409491      3.3847377      7.7323998
X        2.6249262      1.0143686      8.2048020
P        5.5577156      8.1275823      9.9275472
O        6.4245120      6.8564017     10.4564204
C        7.7033662      7.0054181     11.0707128
X        8.7212565      7.4786969     10.1019251
X        9.2417935      9.5268177      9.0253397
X        8.4922404     12.4050491      9.5566477
P       11.8141906      6.5762727     12.1861483
O       12.7933170      5.5926547     11.4224638
C       12.9871870      4.2317499     11.8758940
X       14.1154831      3.6014778     11.0807884
X       16.4297937      3.4133595     11.2904854
X       18.3279191      3.3075062     13.6258111
P       12.9993108     -0.0400407     11.5600768
O       13.9576918     -1.0568854     10.7636757
C       13.4077390     -2.2778847     10.1999443
X       14.4262737     -2.9241084      9.2751499
X       16.3779505     -2.2515984      8.1896832
X       18.1647086     -0.5220507      9.0971881
X       20.2517485     -0.7317039      7.8967504
   142
  Step:          650 Total energy:    2021.8804660462647      Temperature:   0.60160008331347370     
O       -4.0813952     -5.2839697    -15.5123787
C       -2.8744377     -5.1835238    -14.7082411
X       -1.7060326     -5.2509425    -15.6440925
X       -1.2977134     -6.3513130    -17.6592551
X       -3.1416232     -7.0886237    -19.3576922
X       -2.1553748     -8.1276339    -21.3209396
P       -1.7515645     -1.5471076    -16.6891838
O       -0.8372038     -1.2919770    -17.9709075
C        0.5895497     -1.2555874    -18.0307507
X        1.2409922     -0.1095013    -17.3293699
X        0.5325012      2.0491970    -16.7375888
X       -1.9060203      2.6304545    -15.9807080
X       -2.0609943      5.0129089    -15.4460248
P        1.9122787     -1.6592710    -13.8634409
O        2.9566314     -0.8589923    -12.9896637
C        4.3286225     -1.2603240    -12.9920047
X        5.0173383     -0.7553062    -11.7479503
X        4.3697900      0.7035907    -10.0109245
X        1.9179930      1.1017200     -9.1814901
X        1.7460790      1.9987478     -6.9076353
P        4.6007476     -3.8928554     -9.7266857
O        5.2547787     -3.7389301     -8.2703813
C        6.2552160     -4.6674066     -7.7642797
X        6.6796933     -4.2419938     -6.3508029
X        6.3823813     -5.1237208     -4.1994979
X        5.8828449     -7.6943900     -3.9644474
X        7.1062183     -8.6723788     -2.0709372
P       10.3769069     -5.1993417     -6.5669803
O       10.9961141     -5.3843202     -5.1257713
C       12.3367486     -5.9711807     -5.0123791
X       12.7517967     -6.1240626     -3.5322176
X       12.0115541     -5.3665621     -1.4521176
X        9.3841312     -4.1483102     -0.4664786
P       11.8320450     -9.8252993     -2.8744849
O       12.2999618    -10.3660891     -1.4171373
C       11.5922040    -11.3412834     -0.6729704
X       12.0396078    -11.3747984      0.7914016
X       13.9546099    -10.5722982      1.9557180
X       15.5266271     -8.5580425      1.2759060
X       16.5758627     -7.4152221      3.1875249
P        9.1647121     -9.2316799      2.0991840
O        9.2878050     -8.8668747      3.6318053
C        9.1690221     -9.9137084      4.6092891
X        8.7673167     -9.3261463      5.9457195
X        8.7955458     -7.1982323      6.9726235
X        8.8191471     -4.9106039      5.7227728
X        8.0541762     -3.1496595      7.2568442
P        5.0631885     -9.7199147      5.6820924
O        4.2985572     -8.9149325      6.8562942
C        3.8560035     -9.5248340      8.0713552
X        3.1393318     -8.5020861      8.9224601
X        2.9763897     -6.1661536      9.0742541
X        3.3293806     -3.9137516      7.1194614
P       -0.3190229     -8.8369593      7.3324078
O       -1.2450751     -7.5517000      7.6391866
C       -2.2175180     -7.5273151      8.6879793
X       -2.7290409     -6.1035579      8.9416705
X       -2.3119702     -3.9642391      8.0931076
X       -0.9763825     -3.0004203      5.5132489
P       -5.8835663     -6.5491426      6.8062018
O       -6.7404735     -5.2505483      6.9287125
C       -8.1345112     -5.4052916      7.3429690
X       -8.8985333     -4.0805143      7.2572123
X       -8.5216214     -1.8558873      7.9991764
X       -6.0102385     -0.3115130      8.5104615
P       -9.7584703     -4.4744843      3.5438938
O      -11.2480465     -4.0489852      3.1686934
C      -11.6173325     -2.7063794      2.8971272
X      -12.9865508     -2.6612274      2.1841702
X      -13.9781262     -3.9624525      0.4849948
X      -13.3101752     -6.7275206     -0.4747912
P      -15.2416959     -2.0501485      5.1714213
O      -16.3005985     -0.8899124      4.8574201
C      -17.2492609     -0.9520149      3.7677177
X      -18.3167306      0.1237532      3.8866066
X      -19.6388051      0.9823079      5.6292250
X      -19.5530664      1.0703864      8.6485894
P      -16.4269884      3.0877957      2.2965018
O      -17.2341136      3.7029357      1.0802681
C      -16.6793195      3.8842174     -0.2243651
X      -15.9123512      2.6556303     -0.6953990
X      -16.4414182      0.6956688     -1.8631954
X      -18.5947012     -0.0622323     -3.8391759
P      -13.9903744      4.3602292     -3.4705812
O      -13.5896159      3.3694737     -4.6108650
C      -14.3833516      3.0022641     -5.7213043
X      -14.7188394      4.2370526     -6.5338428
X      -14.9996032      6.5312375     -6.1183388
X      -14.0132693      8.4104355     -3.9092211
P      -11.5375851      4.4927337     -8.6686266
O      -11.4189722      5.8975768     -9.3508579
C      -10.8963551      6.0918645    -10.6571610
X      -10.4969197      7.5355681    -10.8835330
X      -11.1618489      9.6287934    -10.1533412
X      -12.3338906     10.2835354     -7.8865180
X      -12.5087529     12.3915247     -7.4208930
P       -6.9603158      7.0929002     -9.5972428
O       -6.6745365      8.1107462     -8.4137890
C       -7.1184471      7.9288398     -7.0647276
X       -6.4851911      6.6537259     -6.4753900
X       -5.2051498      4.8550984     -7.2593005
X       -3.9283188      4.6902592     -9.5365493
X       -1.9425800      3.7230875     -9.5074492
P       -3.6692418      8.4001761     -4.6287381
O       -3.6596900      7.8522939     -3.1106003
C       -3.7147007      8.7735752     -2.0178030
X       -4.0074806      8.0960659     -0.6924149
X       -4.8837987      6.0285169     -0.0246727
X       -4.9419382      3.3610188     -1.3391182
P       -0.3570267      7.9662849      0.4370305
O       -0.0793666      6.7578255      1.4678710
C       -0.9406745      6.5181011      2.5740419
X       -0.3291106      5.5201022      3.5543841
X        1.0767163      3.6407759      3.3855423
X        2.8430689      2.9592717      1.5722788
X        4.4858170      1.6655884      2.1676818
P        1.1005019      8.1424797      5.9133868
O        1.6184691      7.5051751      7.2843136
C        1.5152374      8.1470989      8.5930209
X        1.8811648      7.1914105      9.7040770
X        1.8920564      4.8377749      9.7997913
X        2.6604698      3.3987333      7.7307291
X        2.6137707      0.9731987      8.2342048
P        5.5431939      8.1001385      9.9054674
O        6.4477053      6.9025105     10.4089526
C        7.7044334      7.0342378     11.0611497
X        8.7654535      7.5215946     10.0916294
X        9.1845330      9.5259396      8.9584958
X        8.4724841     12.3839476      9.5580392
P       11.7597933      6.5981714     12.1342913
O       12.8364876      5.6245488     11.4198237
C       13.0044089      4.3270555     11.8959382
X       14.0857398      3.6564064     11.0684642
X       16.4309590      3.4197274     11.3142806
X       18.3006852      3.3230342     13.6464605
P       13.0175414     -0.0710014     11.5647961
O       13.9854684     -1.0891218     10.8561134
C       13.4721257     -2.2819235     10.2583532
X       14.4649416     -2.9102582      9.2934760
X       16.4185491     -2.2689035      8.1967787
X       18.1490649     -0.5288122      9.0902670
X       20.2881581     -0.7105696      7.8767587
   142
  Step:          675 Total energy:    2022.9199037308460      Temperature:   0.59581509783077780     
O       -4.1021573     -5.3057412    -15.4812811
C       -2.9183111     -5.1037693    -14.7172711
X       -1.7442536     -5.1599170    -15.6815188
X       -1.2974780     -6.3525875    -17.6696587
X       -3.1915447     -7.0941904    -19.3304292
X       -2.1233828     -8.1245775    -21.2918609
P       -1.7040311     -1.5590436    -16.7134976
O       -0.7777902     -1.2831693    -17.9917959
C        0.6324692     -1.3518652    -18.0020344
X        1.2368447     -0.0973438    -17.3504383
X        0.4903637      2.0837071    -16.7714276
X       -1.9381688      2.6178362    -15.9972194
X       -2.0700773      5.0061223    -15.4501740
P        1.9331821     -1.6923313    -13.9132379
O        2.9033678     -0.8575208    -12.9578042
C        4.3006377     -1.2152487    -12.9573613
X        5.0007815     -0.6999541    -11.7303705
X        4.4091033      0.7343538     -9.9857996
X        1.9129032      1.1096306     -9.1999816
X        1.7676150      1.9842552     -6.8954334
P        4.6088516     -3.9714928     -9.6825963
O        5.1972605     -3.7253756     -8.2457815
C        6.2423511     -4.5833745     -7.7977403
X        6.6624555     -4.2523350     -6.3576621
X        6.2969013     -5.1625113     -4.2575309
X        5.8879457     -7.7233296     -3.9657680
X        7.1231314     -8.6407313     -2.0519896
P       10.4029090     -5.2013339     -6.5422394
O       11.0360570     -5.3443664     -5.1012144
C       12.3061745     -5.9674595     -4.9695221
X       12.7412880     -6.1471533     -3.5314979
X       12.0518739     -5.3774545     -1.4550408
X        9.4201974     -4.1582459     -0.4661187
P       11.8180905     -9.8426176     -2.8837669
O       12.2418486    -10.3448837     -1.4357829
C       11.5708796    -11.3456380     -0.6651596
X       12.0178794    -11.3083853      0.7869991
X       13.9361464    -10.5478562      1.9354990
X       15.4765538     -8.5782328      1.2484280
X       16.5586318     -7.4493061      3.1582261
P        9.1229300     -9.1972975      2.0570283
O        9.2802485     -8.9070940      3.6156474
C        9.2199900     -9.9113664      4.6298981
X        8.8212852     -9.3111875      5.9570683
X        8.8674619     -7.1688687      6.9594082
X        8.7792398     -4.8893047      5.7141512
X        8.0620130     -3.1228334      7.2377999
P        5.0660324     -9.7087144      5.6899172
O        4.3552866     -8.8622831      6.8180193
C        3.8093394     -9.4406526      7.9856551
X        3.1001606     -8.4630436      8.9263263
X        2.9636794     -6.1380547      9.1085050
X        3.3119488     -3.8992752      7.1375778
P       -0.3475173     -8.8317733      7.3387085
O       -1.2326432     -7.5730086      7.6010002
C       -2.1935479     -7.5365119      8.6981032
X       -2.8048031     -6.1595788      8.9109687
X       -2.2922631     -4.0179482      8.1042697
X       -0.9932860     -3.0242925      5.5094078
P       -5.8485651     -6.5441823      6.8360918
O       -6.7812201     -5.2360114      6.9683890
C       -8.1693030     -5.3248538      7.3793252
X       -8.9112655     -4.0392774      7.2817803
X       -8.5714452     -1.8362224      7.9650743
X       -6.0034645     -0.3194146      8.5031668
P       -9.7146005     -4.4577864      3.5444887
O      -11.2228800     -4.0692926      3.1611898
C      -11.5604928     -2.7332606      2.9042277
X      -12.8794737     -2.7141824      2.2010607
X      -13.8879602     -3.9708687      0.5309736
X      -13.3102904     -6.7256900     -0.4736336
P      -15.2328398     -2.0705725      5.1420543
O      -16.3062248     -0.9224647      4.8341702
C      -17.2239444     -0.9347472      3.7371019
X      -18.2952088      0.1495248      3.8979460
X      -19.6239061      1.0164542      5.6140841
X      -19.5594115      1.0644929      8.6220275
P      -16.4028737      3.0959747      2.2847533
O      -17.2786941      3.6913989      1.0770344
C      -16.7012062      3.9050496     -0.2043226
X      -15.9485039      2.6379361     -0.6223792
X      -16.5324251      0.6714364     -1.7282200
X      -18.5759770     -0.0636612     -3.8032508
P      -13.9964958      4.3570164     -3.4506464
O      -13.5460104      3.2793972     -4.5667655
C      -14.4096128      2.9783357     -5.6870273
X      -14.7754894      4.2243374     -6.5507395
X      -14.9489056      6.5475341     -6.1147070
X      -13.9947597      8.3958274     -3.9002199
P      -11.5073469      4.4771227     -8.6522379
O      -11.3600441      5.9373289     -9.3176792
C      -11.0056007      6.0513868    -10.6942681
X      -10.5306996      7.4800468    -10.9483536
X      -11.1367109      9.6292552    -10.1531682
X      -12.3021983     10.2817298     -7.8771619
X      -12.4984842     12.4474452     -7.4029421
P       -6.9493907      7.1143867     -9.6186168
O       -6.6555077      8.1154049     -8.4070351
C       -7.1725772      7.8403705     -7.0988886
X       -6.5245476      6.6602204     -6.4854426
X       -5.2370651      4.8474073     -7.2534881
X       -3.8902920      4.6518400     -9.5429940
X       -1.9644085      3.6974280     -9.5053629
P       -3.6527803      8.3730934     -4.6158516
O       -3.6720040      7.8796649     -3.1177366
C       -3.7846522      8.8165312     -2.0400708
X       -4.0341547      8.1419517     -0.6925804
X       -4.7545948      6.0347488      0.0718208
X       -4.9250934      3.3450773     -1.3215539
P       -0.4023603      7.9700245      0.4460607
O       -0.1179653      6.7917639      1.4623306
C       -0.9410885      6.4963788      2.5836182
X       -0.3008048      5.5257332      3.5630267
X        1.0837070      3.6276973      3.4501243
X        2.8440783      2.9237066      1.5841068
X        4.4758048      1.6226306      2.1924987
P        1.1476252      8.1486332      5.9183892
O        1.6026150      7.5148045      7.2956826
C        1.4334524      8.1501576      8.5547852
X        1.7994034      7.1536532      9.6382574
X        1.9216238      4.8347343      9.8045107
X        2.6597850      3.3860926      7.7488497
X        2.6124797      0.9707394      8.2498410
P        5.5484597      8.0895127      9.8758113
O        6.4400456      6.8667894     10.3824628
C        7.6769866      7.1125488     11.0713685
X        8.7475513      7.5457387     10.0143376
X        9.1743556      9.5366514      8.8906943
X        8.4422361     12.3778415      9.5510029
P       11.7729807      6.6230140     12.1223806
O       12.8224288      5.6073229     11.4559642
C       13.0328253      4.3122743     11.8987319
X       14.0997542      3.6272671     11.0735898
X       16.4389849      3.3615639     11.2983781
X       18.2733275      3.3373323     13.6632550
P       13.0277893     -0.0411837     11.5890659
O       14.0369614     -1.0950846     10.8995941
C       13.5269413     -2.2780682     10.2937777
X       14.4950287     -2.9423582      9.3169110
X       16.4371237     -2.2702250      8.1393637
X       18.1636752     -0.5385218      9.0854674
X       20.3099145     -0.6836644      7.8639394
   142
  Step:          700 Total energy:    2023.9077770345536      Temperature:   0.61690170768815411     
O       -4.1581729     -5.3422533    -15.4040090
C       -2.9517232     -4.9977836    -14.7791169
X       -1.7596282     -5.1473994    -15.7036982
X       -1.3442837     -6.3609584    -17.6478220
X       -3.2154730     -7.1037301    -19.3032092
X       -2.0933628     -8.1148529    -21.2518890
P       -1.6617814     -1.5060448    -16.7473867
O       -0.7515500     -1.3314164    -18.0422866
C        0.6771629     -1.3365600    -17.9815275
X        1.2718529     -0.1056343    -17.3225918
X        0.4537838      2.0058128    -16.8217082
X       -1.9726052      2.6157741    -16.0156079
X       -2.0905393      5.0018357    -15.4582523
P        1.9233540     -1.7285879    -13.9588739
O        2.8850167     -0.9043121    -13.0065596
C        4.3015673     -1.1117414    -12.9936534
X        4.9326114     -0.7014781    -11.6429716
X        4.4066649      0.7894582     -9.9336094
X        1.9184327      1.1173275     -9.1952071
X        1.7913447      1.9583807     -6.9094455
P        4.6057572     -3.9938141     -9.6826137
O        5.1660237     -3.7947418     -8.1860470
C        6.3013081     -4.5164236     -7.7958377
X        6.6995729     -4.2087986     -6.3673209
X        6.2125037     -5.1642328     -4.2835677
X        5.8920487     -7.7750348     -3.9610595
X        7.1381397     -8.6144885     -2.0284273
P       10.3957411     -5.1820994     -6.5347011
O       11.0827523     -5.3283151     -5.0629297
C       12.2983176     -6.0230257     -4.9306426
X       12.7718350     -6.2081654     -3.4948939
X       12.1064914     -5.3712295     -1.4007904
X        9.4536731     -4.1623091     -0.4642076
P       11.7985491     -9.8651096     -2.9150375
O       12.2010275    -10.2388454     -1.4233345
C       11.6167717    -11.3504066     -0.7036314
X       11.9931404    -11.2697824      0.7456923
X       13.8549622    -10.5581895      1.9933794
X       15.4432977     -8.5819847      1.2256709
X       16.5300447     -7.4931205      3.1080434
P        9.0906727     -9.1652999      2.0290138
O        9.2694705     -8.9025521      3.6000034
C        9.2612746     -9.9002809      4.6209987
X        8.9043120     -9.3272256      5.9828255
X        8.9899729     -7.1886838      6.9573014
X        8.7378756     -4.8742056      5.7006264
X        8.0694972     -3.0868237      7.2264898
P        5.0703938     -9.6945958      5.7000062
O        4.3425985     -8.7702348      6.8126889
C        3.7898682     -9.4260397      7.9598147
X        3.0682157     -8.4351374      8.8977227
X        2.9081574     -6.0997171      9.1618366
X        3.2945942     -3.8806360      7.1509931
P       -0.3678752     -8.8413210      7.3222349
O       -1.2813596     -7.5429433      7.6268846
C       -2.2121311     -7.5740102      8.7106189
X       -2.7113052     -6.2018760      8.9087254
X       -2.2800346     -4.0411307      8.1078066
X       -1.0098560     -3.0459683      5.5141652
P       -5.8661943     -6.5149149      6.8492431
O       -6.8314277     -5.2547699      6.9877996
C       -8.1640229     -5.3358109      7.4483932
X       -8.9492776     -4.0190637      7.2920605
X       -8.5697273     -1.7974182      7.9011587
X       -6.0067964     -0.3262206      8.4912184
P       -9.6573229     -4.4499522      3.5471281
O      -11.1406938     -4.1010382      3.1991255
C      -11.4955579     -2.7332974      2.9564102
X      -12.8078577     -2.6559165      2.1913505
X      -13.8518026     -3.9139596      0.4935895
X      -13.3100543     -6.7380469     -0.4774465
P      -15.2359850     -2.0902940      5.1150433
O      -16.3103773     -0.9510440      4.8346195
C      -17.1954659     -0.9221958      3.7305213
X      -18.2518438      0.1830202      3.8763307
X      -19.6258617      1.0282068      5.5828866
X      -19.5625727      1.0568292      8.5985475
P      -16.4084206      3.0901071      2.2848491
O      -17.2561224      3.7203340      1.0979258
C      -16.7426825      3.8960267     -0.1958802
X      -15.9961484      2.6487242     -0.5923724
X      -16.5536755      0.6157875     -1.6197278
X      -18.5556892     -0.0559604     -3.7624560
P      -13.9882394      4.3234206     -3.4274051
O      -13.6299086      3.2871303     -4.5700083
C      -14.4074195      2.9981546     -5.7019662
X      -14.7016823      4.1970241     -6.5108098
X      -14.9729152      6.4998587     -6.1120350
X      -13.9754568      8.3866900     -3.8944299
P      -11.5090142      4.4560909     -8.6012573
O      -11.3271247      5.8841745     -9.2841828
C      -11.0498298      6.0760608    -10.6768667
X      -10.5758812      7.4853370    -10.9905533
X      -11.1188881      9.6228930    -10.1169465
X      -12.2707022     10.3336742     -7.8687472
X      -12.4867715     12.4405373     -7.4012378
P       -6.9317110      7.1280255     -9.6534935
O       -6.6776093      8.1151253     -8.4374777
C       -7.1993398      7.8306043     -7.1145089
X       -6.5064038      6.6155659     -6.5026031
X       -5.2573118      4.7919760     -7.3204392
X       -3.9014448      4.6388964     -9.5469492
X       -1.9552192      3.6541231     -9.4920341
P       -3.6507071      8.3308818     -4.6233489
O       -3.6357881      7.9142102     -3.0659564
C       -3.9283872      8.8484500     -2.0031406
X       -4.0446398      8.1268897     -0.6672544
X       -4.7361737      6.0331863      0.0132634
X       -4.9020438      3.3471358     -1.2904447
P       -0.4319866      7.9947960      0.4435353
O       -0.1285237      6.7941652      1.4624072
C       -0.9651892      6.4621749      2.5990287
X       -0.2874922      5.4935649      3.5612962
X        1.1272937      3.6370603      3.4711970
X        2.8417945      2.9108694      1.6040777
X        4.4628145      1.5602239      2.2188501
P        1.2014431      8.1646031      5.9061238
O        1.6102635      7.4889662      7.2941620
C        1.3458588      8.1385208      8.5204237
X        1.7642396      7.1537981      9.6358264
X        1.9561785      4.8330129      9.8257936
X        2.6484879      3.3555123      7.7631479
X        2.6237428      0.9954899      8.2620911
P        5.5297192      8.0620809      9.8387657
O        6.4123847      6.8607191     10.4034978
C        7.6632178      7.1387057     10.9887960
X        8.6808670      7.5715747      9.9671795
X        9.2118295      9.5310327      8.8341780
X        8.3981739     12.3809150      9.5385506
P       11.8192108      6.6479665     12.1443715
O       12.7991044      5.5800424     11.4398996
C       13.0460148      4.2169646     11.9106327
X       14.1490552      3.5601530     11.0875576
X       16.4564661      3.2599421     11.2556391
X       18.2474032      3.3569125     13.6813067
P       13.0616926     -0.0010218     11.6127897
O       14.0316626     -1.0643380     10.9044233
C       13.5701711     -2.2848816     10.3162716
X       14.5413173     -2.9352741      9.3571950
X       16.4229633     -2.2255935      8.1439271
X       18.2022392     -0.5656862      9.0657377
X       20.3065297     -0.6560112      7.8668663
   142
  Step:          725 Total energy:    2022.4214559304489      Temperature:   0.59961023131652180     
O       -4.2131549     -5.3618037    -15.3548028
C       -2.9806625     -4.9415290    -14.7354679
X       -1.7852818     -5.0951329    -15.6881314
X       -1.3411958     -6.3738158    -17.6001032
X       -3.2191661     -7.1278043    -19.2963696
X       -2.0802715     -8.0917171    -21.2042814
P       -1.6422919     -1.4469878    -16.8099752
O       -0.6944993     -1.3379335    -18.0835858
C        0.7440421     -1.3621962    -18.0512545
X        1.2794803     -0.1290999    -17.3232154
X        0.4646495      1.9830951    -16.7944495
X       -2.0042952      2.6200495    -16.0358967
X       -2.1194031      4.9920027    -15.4757396
P        1.9173337     -1.7905112    -13.9778069
O        2.8921164     -0.9114603    -13.0434513
C        4.2904215     -1.1048750    -12.9674916
X        4.9047253     -0.6830008    -11.6193558
X        4.4162947      0.7991923     -9.8715174
X        1.9189447      1.1176641     -9.1907157
X        1.8138329      1.9384744     -6.9146201
P        4.5993422     -3.9754392     -9.6920052
O        5.1565290     -3.9050824     -8.1947512
C        6.4188062     -4.4446878     -7.7985852
X        6.7100541     -4.1852641     -6.3199332
X        6.1890785     -5.2512632     -4.2979769
X        5.8900590     -7.8144713     -3.9663708
X        7.1546872     -8.5846343     -2.0006860
P       10.3946370     -5.1465376     -6.5070923
O       11.0852403     -5.3478456     -5.1018696
C       12.2952379     -6.0912973     -4.9379176
X       12.7889988     -6.2220941     -3.4681035
X       12.1346781     -5.3688812     -1.3613733
X        9.4883447     -4.1655118     -0.4626530
P       11.7834408     -9.8591119     -2.9382202
O       12.1232989    -10.1608286     -1.4105700
C       11.6333908    -11.3350398     -0.7369644
X       12.0060763    -11.2822582      0.7264619
X       13.7855655    -10.4977724      1.9978152
X       15.3981161     -8.6106397      1.1890649
X       16.5169462     -7.5242533      3.0729618
P        9.0706736     -9.1493969      2.0302860
O        9.2342406     -8.8515631      3.5956169
C        9.2615366     -9.8922641      4.5855360
X        8.9620185     -9.2789943      5.9665480
X        9.0978619     -7.1641511      6.9116833
X        8.6945956     -4.8793791      5.6891836
X        8.0807804     -3.0500919      7.2196167
P        5.0965989     -9.6401581      5.7301698
O        4.3271906     -8.7622595      6.7888577
C        3.7774638     -9.3430950      7.9751007
X        3.0379694     -8.3827372      8.8664586
X        2.8349982     -6.0964484      9.1073772
X        3.2800921     -3.8659776      7.1626668
P       -0.3926524     -8.8405429      7.2949273
O       -1.2861442     -7.6129042      7.6168625
C       -2.1745847     -7.6039681      8.7057795
X       -2.7047570     -6.1999102      8.9989783
X       -2.2155171     -4.0463272      8.1369393
X       -1.0260194     -3.0575724      5.5103840
P       -5.9079542     -6.4856482      6.8518274
O       -6.8593637     -5.2120604      7.0586495
C       -8.1828147     -5.3918543      7.5195017
X       -8.9557306     -4.0426758      7.3100279
X       -8.5508261     -1.7754117      7.8331893
X       -6.0093456     -0.3277759      8.4824436
P       -9.5806453     -4.4661274      3.5533729
O      -11.1183202     -4.1069823      3.1698079
C      -11.5115329     -2.7057070      2.9620988
X      -12.7853743     -2.6032496      2.1427980
X      -13.7125263     -3.9186644      0.4451264
X      -13.3167926     -6.7400425     -0.4740047
P      -15.2434956     -2.1369178      5.0932888
O      -16.3133675     -0.9439602      4.8478236
C      -17.1788148     -0.8867381      3.7129459
X      -18.2537158      0.1730324      3.8566098
X      -19.6215092      1.0203701      5.5746534
X      -19.5672170      1.0488785      8.5759710
P      -16.4046389      3.0884219      2.2895774
O      -17.2501163      3.8155741      1.1089733
C      -16.7892691      3.8959680     -0.2428089
X      -16.0157095      2.6464437     -0.6006779
X      -16.5090659      0.5831032     -1.6174173
X      -18.5381544     -0.0479438     -3.7171308
P      -14.0122326      4.2912544     -3.3857289
O      -13.6076474      3.2529932     -4.5488029
C      -14.4001358      2.9499047     -5.7375268
X      -14.6799469      4.2289445     -6.5266417
X      -14.9818012      6.4883816     -6.0490227
X      -13.9598439      8.3785014     -3.8959100
P      -11.5095795      4.4287851     -8.5605757
O      -11.3318611      5.8464939     -9.2674185
C      -11.0329127      6.0841722    -10.6599974
X      -10.5988784      7.5006449    -10.8948287
X      -11.1175422      9.6706956    -10.1444994
X      -12.2405242     10.3587660     -7.8602374
X      -12.4777773     12.4551444     -7.4024261
P       -6.9387881      7.1407945     -9.7094726
O       -6.7169906      8.1008073     -8.4613914
C       -7.1274948      7.8501505     -7.1176421
X       -6.5049849      6.5759575     -6.5249586
X       -5.2712583      4.7355142     -7.3201175
X       -3.9149111      4.6243083     -9.5671320
X       -1.9468579      3.6218146     -9.4651904
P       -3.6540949      8.2986282     -4.6108326
O       -3.6311090      7.9596414     -3.0585561
C       -3.9482755      8.8794771     -2.0188868
X       -4.1202684      8.1614643     -0.6670733
X       -4.8515686      6.0464760      0.0529888
X       -4.8789114      3.3401884     -1.2678324
P       -0.4242240      8.0141302      0.4588949
O       -0.1312930      6.8036544      1.4662276
C       -0.9759094      6.4329797      2.5670646
X       -0.3009601      5.5054963      3.5770758
X        1.1489433      3.6402493      3.5012110
X        2.8670051      2.9035030      1.6273217
X        4.4267883      1.5019378      2.2218211
P        1.2395334      8.1531503      5.8622872
O        1.6160599      7.4945909      7.2671805
C        1.3405008      8.0693460      8.5387769
X        1.7770468      7.1730699      9.6874969
X        1.9647773      4.8608588      9.8174767
X        2.6317994      3.3809302      7.7634207
X        2.6351717      0.9794416      8.2872307
P        5.4756271      8.0411965      9.7894808
O        6.3485636      6.8652081     10.3968271
C        7.6478411      7.1213169     10.9555961
X        8.7341414      7.5603541      9.9636406
X        9.1746887      9.5857123      8.8497076
X        8.3504861     12.3783945      9.5231854
P       11.8572359      6.6402684     12.1409576
O       12.7563839      5.5540948     11.4198335
C       13.1035328      4.2042183     11.9273878
X       14.1739158      3.5349156     11.0623132
X       16.4624114      3.1878341     11.2530888
X       18.2212522      3.3770444     13.6979920
P       13.0823778     -0.0079459     11.6406817
O       14.0326053     -1.0153278     10.8704638
C       13.5583899     -2.2843000     10.3763099
X       14.5571907     -2.9091365      9.4032071
X       16.4052881     -2.2424744      8.1188639
X       18.2110083     -0.5758520      9.0687416
X       20.3326031     -0.6264218      7.8479929
   142
  Step:          750 Total energy:    2020.6092059730906      Temperature:   0.56870258182165789     
O       -4.2207967     -5.3585353    -15.3206501
C       -2.9989678     -4.9393627    -14.6718644
X       -1.8703920     -5.0464081    -15.6590403
X       -1.4241394     -6.3350538    -17.5370427
X       -3.2169596     -7.1396000    -19.2568013
X       -2.0673564     -8.0871388    -21.1914715
P       -1.6272167     -1.4057926    -16.8921008
O       -0.6578347     -1.3190015    -18.1538845
C        0.7791420     -1.3620816    -18.0977228
X        1.2844134     -0.1266202    -17.3448662
X        0.4232131      1.9479415    -16.7024841
X       -2.0153921      2.6123501    -16.0677386
X       -2.1469615      4.9916762    -15.4945396
P        1.9393372     -1.8354920    -13.9594973
O        2.8567989     -0.9128788    -13.0225656
C        4.2618422     -1.1481451    -12.9097677
X        4.9633138     -0.6793370    -11.6515864
X        4.4255058      0.7654881     -9.8773576
X        1.9164732      1.1144200     -9.2062559
X        1.8247914      1.9286640     -6.8825763
P        4.5935412     -3.9863874     -9.7004957
O        5.1542465     -3.9313325     -8.2139325
C        6.4795879     -4.3853697     -7.7954598
X        6.7350707     -4.1721617     -6.3063189
X        6.1919428     -5.2775782     -4.2922462
X        5.8916941     -7.8715962     -3.9637285
X        7.1570569     -8.5506432     -1.9823681
P       10.4149473     -5.0932446     -6.4917122
O       11.0546973     -5.4036395     -5.0392837
C       12.3286056     -6.0851487     -4.9366386
X       12.7817046     -6.2105633     -3.5210443
X       12.1609347     -5.3863747     -1.4389906
X        9.5182810     -4.1663531     -0.4620955
P       11.7888219     -9.8148791     -2.9393902
O       12.0256140    -10.1672337     -1.4146039
C       11.5959068    -11.3444701     -0.7642298
X       11.9449240    -11.2970355      0.7470300
X       13.7458936    -10.4973916      2.0391402
X       15.3593506     -8.6297136      1.1527854
X       16.5121809     -7.5489700      3.0413630
P        9.0720306     -9.1485892      2.0343226
O        9.2009403     -8.8158936      3.5657752
C        9.2402833     -9.8379574      4.5488227
X        8.9579009     -9.2390453      5.9344950
X        9.1629110     -7.1361894      6.9448187
X        8.6490690     -4.8737748      5.6820814
X        8.1029310     -3.0337483      7.2118318
P        5.1475751     -9.5840883      5.7383577
O        4.3279772     -8.7130571      6.8045556
C        3.8106772     -9.3448421      7.9925020
X        2.9911100     -8.3994450      8.8676350
X        2.7432589     -6.0643242      9.1360064
X        3.2707478     -3.8407070      7.1664391
P       -0.3888968     -8.8925777      7.2547898
O       -1.3564694     -7.6049051      7.5948781
C       -2.1651865     -7.5832564      8.7769449
X       -2.7441027     -6.1820420      9.0230000
X       -2.1607579     -4.0667721      8.1916128
X       -1.0386685     -3.0676653      5.5104685
P       -5.9216808     -6.4563388      6.8730432
O       -6.8651536     -5.2078835      7.1848092
C       -8.2260541     -5.3332673      7.5613798
X       -8.9687967     -4.0763010      7.3331063
X       -8.5220091     -1.8325083      7.7603989
X       -6.0069762     -0.3207317      8.4757524
P       -9.5823147     -4.4676635      3.5391008
O      -11.0403743     -4.0554250      3.0651435
C      -11.4915292     -2.7215090      2.9827275
X      -12.7381640     -2.5871662      2.1410317
X      -13.6513474     -3.8515431      0.3592593
X      -13.3206808     -6.7438151     -0.4666660
P      -15.2652764     -2.1708151      5.0560221
O      -16.2827382     -0.9776640      4.8632012
C      -17.1609066     -0.8955212      3.7258323
X      -18.2691157      0.1418615      3.8214195
X      -19.6378196      0.9971590      5.5502312
X      -19.5708902      1.0385305      8.5612089
P      -16.4001972      3.1327824      2.2654870
O      -17.2207149      3.8754542      1.1391125
C      -16.8590267      3.8840044     -0.2477153
X      -16.0330952      2.6558651     -0.5820861
X      -16.4147894      0.6018123     -1.6457291
X      -18.5246453     -0.0484754     -3.6727189
P      -14.0240062      4.2311981     -3.3888113
O      -13.5835443      3.2395265     -4.5021923
C      -14.3136568      2.9564439     -5.7147344
X      -14.7300609      4.2069145     -6.5301254
X      -15.0072408      6.4807284     -6.0725374
X      -13.9449356      8.3771874     -3.8873747
P      -11.4809530      4.3971361     -8.5518386
O      -11.3736333      5.8585643     -9.1959092
C      -11.0130611      6.0727124    -10.5848743
X      -10.5646492      7.5238909    -10.8310061
X      -11.1497339      9.6900643    -10.1638305
X      -12.2115734     10.3487350     -7.8408228
X      -12.4638604     12.4997764     -7.4032623
P       -6.9863997      7.1557231     -9.7570272
O       -6.6511946      8.1012368     -8.4766923
C       -7.0997197      7.7891089     -7.1647162
X       -6.4649780      6.5741727     -6.5147172
X       -5.2895538      4.7374163     -7.3192325
X       -3.8955593      4.5841792     -9.5881504
X       -1.9796388      3.6103956     -9.4316283
P       -3.6476172      8.2964831     -4.6138932
O       -3.6711534      7.9259757     -3.0425438
C       -3.9295902      8.8669881     -2.0047729
X       -4.1997930      8.1952510     -0.6623947
X       -4.9086289      6.0544009      0.0455041
X       -4.8576988      3.3370324     -1.2410968
P       -0.4294382      8.0215401      0.4838231
O       -0.1242361      6.7940945      1.4668443
C       -0.9749583      6.4306957      2.5380011
X       -0.3363426      5.4915481      3.5443103
X        1.1765377      3.6814648      3.4894191
X        2.8828517      2.9080390      1.6572267
X        4.3954747      1.4438553      2.2251454
P        1.2652654      8.1270792      5.8292420
O        1.6233108      7.5070809      7.2678550
C        1.3907075      8.1374223      8.5531194
X        1.7440680      7.1555982      9.6573438
X        1.9815192      4.8042476      9.8883668
X        2.6167193      3.3975232      7.7632097
X        2.6478509      0.9724575      8.3126572
P        5.4272583      8.0414546      9.7453484
O        6.3648005      6.8892273     10.3629760
C        7.6670295      7.0409210     10.9883146
X        8.7395528      7.5280155     10.0146771
X        9.2018665      9.5915842      8.8835098
X        8.3051986     12.3764150      9.5096192
P       11.8584595      6.6078338     12.1261751
O       12.7821776      5.5261166     11.3635110
C       13.1279937      4.2696490     11.9200855
X       14.1619603      3.5833445     11.0558887
X       16.4730555      3.1661960     11.2598292
X       18.1958143      3.4004682     13.7066900
P       13.0907064     -0.0349779     11.6840343
O       14.0533957     -0.9885159     10.8349157
C       13.5962788     -2.2903907     10.4070954
X       14.5432984     -2.9143029      9.3977173
X       16.4141393     -2.2630354      8.1829493
X       18.2108444     -0.5733033      9.0802380
X       20.3476275     -0.6058115      7.8187444
   142
  Step:          775 Total energy:    2020.5795991150117      Temperature:   0.57333133197084918     
O       -4.2461779     -5.3570346    -15.2723682
C       -3.0647583     -4.8804189    -14.6258448
X       -1.8980667     -4.9876118    -15.5766184
X       -1.4328681     -6.2814543    -17.4978347
X       -3.2242917     -7.1548536    -19.2244247
X       -2.0584447     -8.0848971    -21.1940200
P       -1.6263471     -1.3900934    -16.9825936
O       -0.6526773     -1.3231086    -18.2422980
C        0.7604774     -1.3065241    -18.1388218
X        1.3313639     -0.1604221    -17.3332882
X        0.4618734      1.9378802    -16.6278576
X       -2.0325470      2.6033079    -16.0969009
X       -2.1754854      4.9926359    -15.5218228
P        1.9627103     -1.8357339    -13.9324729
O        2.8482448     -0.9592918    -12.9525495
C        4.2916832     -1.1849944    -12.9552854
X        4.9717425     -0.7288776    -11.6660824
X        4.4032980      0.7502794     -9.9240903
X        1.9230604      1.1247294     -9.1933322
X        1.8219578      1.9168843     -6.8678116
P        4.5972591     -4.0126034     -9.7021178
O        5.1734351     -3.8496822     -8.2107445
C        6.4540114     -4.3964815     -7.7835727
X        6.7437546     -4.1907755     -6.3298630
X        6.1975687     -5.3253140     -4.3659318
X        5.8983304     -7.9085231     -3.9574101
X        7.1525999     -8.5289266     -1.9576722
P       10.4560717     -5.0267658     -6.4501482
O       10.9896272     -5.4756839     -5.0505037
C       12.3318609     -6.0134801     -4.9978884
X       12.8336164     -6.1902797     -3.5864231
X       12.1719378     -5.3802566     -1.4923322
X        9.5441658     -4.1640037     -0.4585980
P       11.7954173     -9.7747022     -2.9420502
O       11.9709338    -10.1898700     -1.3653635
C       11.5138619    -11.3463464     -0.7077595
X       11.8875281    -11.3100014      0.7649994
X       13.7170625    -10.5212722      1.9832948
X       15.3250281     -8.6400301      1.1355292
X       16.4982032     -7.5741888      3.0003647
P        9.0606471     -9.1547059      1.9971703
O        9.2055754     -8.7672880      3.5552120
C        9.1887467     -9.7688726      4.5737203
X        8.9494432     -9.1985301      5.9386072
X        9.1301820     -7.0954650      6.9369936
X        8.6122127     -4.8747877      5.6776669
X        8.1233445     -3.0325303      7.2036814
P        5.1750853     -9.5300134      5.7361323
O        4.4013448     -8.6861532      6.8620843
C        3.8078390     -9.3227121      7.9978886
X        2.9856915     -8.3870915      8.8723781
X        2.7278126     -6.0563784      9.0753534
X        3.2633610     -3.8194767      7.1713050
P       -0.4317552     -8.8928322      7.2196440
O       -1.4016125     -7.7138684      7.6197153
C       -2.2212272     -7.5930682      8.7749439
X       -2.6768568     -6.1539007      8.9924480
X       -2.2039298     -4.0374838      8.1977238
X       -1.0488157     -3.0847556      5.5161275
P       -5.9066079     -6.4242926      6.9370976
O       -6.8639310     -5.2219774      7.2714026
C       -8.2921157     -5.3906726      7.5847423
X       -8.9993491     -4.0781968      7.3213018
X       -8.5103802     -1.8030015      7.7402558
X       -5.9990068     -0.3059741      8.4789720
P       -9.5771963     -4.4781099      3.5124367
O      -11.0234971     -4.0439900      2.9494357
C      -11.4454299     -2.7036839      2.9702026
X      -12.7035422     -2.5872267      2.1210747
X      -13.6215708     -3.8652937      0.3624126
X      -13.3217164     -6.7317648     -0.4520909
P      -15.2750947     -2.2223467      5.0150251
O      -16.3030097     -0.9903820      4.8408666
C      -17.1873500     -0.9334130      3.6957518
X      -18.2519090      0.1419052      3.8326276
X      -19.6523804      0.9406693      5.5476562
X      -19.5731243      1.0290720      8.5530659
P      -16.3773363      3.1735269      2.2592649
O      -17.2662335      3.9045081      1.1362779
C      -16.8964190      3.8866755     -0.2640715
X      -16.0355530      2.6646542     -0.5580783
X      -16.3469846      0.6419868     -1.6744318
X      -18.5165919     -0.0584252     -3.6323162
P      -14.0319211      4.2225348     -3.3798525
O      -13.5470526      3.1784295     -4.5456187
C      -14.3317899      2.9361065     -5.6983957
X      -14.6883379      4.1886877     -6.4690382
X      -15.0080166      6.4556745     -6.0479549
X      -13.9295665      8.3702788     -3.8881959
P      -11.4900364      4.4019804     -8.5455591
O      -11.3612255      5.8714371     -9.1236844
C      -10.9769426      6.0870951    -10.4645995
X      -10.5902785      7.5316448    -10.8394029
X      -11.1862657      9.6665535    -10.1395123
X      -12.1977439     10.3770913     -7.8123614
X      -12.4455118     12.5130202     -7.4114163
P       -6.9886506      7.1779266     -9.7589078
O       -6.5818098      8.0418003     -8.5118784
C       -7.0922545      7.8133141     -7.1975807
X       -6.4278421      6.5680465     -6.5790341
X       -5.2295852      4.7362848     -7.3587143
X       -3.9128734      4.5573836     -9.6017238
X       -1.9892893      3.5799693     -9.3963490
P       -3.6371539      8.3045586     -4.5943552
O       -3.7426548      7.8670272     -3.0557918
C       -3.9566994      8.8350226     -2.0092148
X       -4.1546486      8.1822749     -0.6596502
X       -4.8981038      6.0683952      0.0058438
X       -4.8353076      3.3445788     -1.2141903
P       -0.4808959      8.0202862      0.4911448
O       -0.1368707      6.7782559      1.4459024
C       -1.0085168      6.4412787      2.5143606
X       -0.3522422      5.5071643      3.5233232
X        1.1613043      3.6938271      3.4988368
X        2.9013893      2.9164198      1.6702300
X        4.3704533      1.3973755      2.2318406
P        1.2886864      8.1044183      5.8251067
O        1.6096556      7.4882953      7.2330895
C        1.3764020      8.0939976      8.5318963
X        1.7642714      7.1424761      9.6310750
X        1.9350753      4.8189708      9.8378205
X        2.6000032      3.3677623      7.7829912
X        2.6573808      1.0124476      8.3264736
P        5.4537815      8.0432787      9.7353773
O        6.3702891      6.8765220     10.3224571
C        7.6437711      7.0633127     10.9738110
X        8.7242893      7.5212268     10.0812671
X        9.2004926      9.5493166      9.0179321
X        8.2672338     12.3688383      9.4981865
P       11.8317147      6.5647828     12.1117949
O       12.8179062      5.5739733     11.3235777
C       13.1145676      4.3449386     11.8859735
X       14.1590349      3.5873843     11.0814032
X       16.4805330      3.2104958     11.2638933
X       18.1697847      3.4209490     13.7094132
P       13.1214252     -0.0446715     11.7157975
O       14.0290863     -1.0138862     10.8390287
C       13.6089550     -2.3033933     10.4326848
X       14.5253940     -2.9551383      9.3928216
X       16.4609435     -2.2941287      8.2262275
X       18.2518272     -0.5581836      9.0724267
X       20.3221349     -0.5897022      7.8041916
   142
  Step:          800 Total energy:    2022.9754339975291      Temperature:   0.61207565287713339     
O       -4.2894242     -5.3438173    -15.1933317
C       -3.1194677     -4.7507554    -14.6328722
X       -1.8974405     -4.9420138    -15.5328034
X       -1.4967578     -6.2430781    -17.4598418
X       -3.2013783     -7.1650448    -19.2082245
X       -2.0663852     -8.0695674    -21.1746686
P       -1.6543535     -1.3997361    -17.0551960
O       -0.6195515     -1.3180085    -18.2953780
C        0.8088550     -1.3011484    -18.1491211
X        1.3016583     -0.1413789    -17.3069724
X        0.4458316      1.9362789    -16.5748487
X       -2.0222000      2.5995836    -16.1175646
X       -2.2033983      4.9791257    -15.5555829
P        1.9631277     -1.8387092    -13.9096495
O        2.9244215     -1.0453700    -12.9173136
C        4.3429534     -1.2236241    -12.9750987
X        4.9326243     -0.7749516    -11.6830668
X        4.3995078      0.7114328     -9.9672816
X        1.9330403      1.1413444     -9.1685411
X        1.8051082      1.9026450     -6.8682126
P        4.6253213     -4.0155842     -9.6721052
O        5.2172644     -3.7804390     -8.2285558
C        6.4135690     -4.4325319     -7.8717067
X        6.6981759     -4.2308373     -6.3771436
X        6.2026424     -5.3694305     -4.3809069
X        5.9014087     -7.9295639     -3.9541345
X        7.1537028     -8.5162224     -1.9206492
P       10.4701490     -4.9406508     -6.4257787
O       11.0020773     -5.5703036     -5.0541637
C       12.3679915     -6.0016882     -5.0453419
X       12.8709645     -6.1224478     -3.6040709
X       12.1640453     -5.3409195     -1.5028527
X        9.5719291     -4.1640018     -0.4534377
P       11.7872066     -9.7819533     -2.8978321
O       11.9773596    -10.1457356     -1.3769029
C       11.4268686    -11.3015836     -0.7292175
X       11.8475415    -11.3327298      0.7464030
X       13.7169844    -10.5777755      1.9642665
X       15.2852189     -8.6420329      1.1161410
X       16.4825667     -7.5980822      2.9580098
P        9.0262143     -9.1324510      1.9778299
O        9.2199450     -8.7585185      3.5050019
C        9.1998500     -9.7428960      4.5494224
X        8.9344419     -9.1920145      5.9501044
X        9.0483843     -7.0596422      7.0068065
X        8.5788854     -4.8717193      5.6534649
X        8.1408614     -3.0232440      7.2009282
P        5.1612545     -9.4711721      5.7485138
O        4.4844688     -8.6744199      6.9354954
C        3.8156842     -9.3277442      7.9905691
X        2.9835187     -8.3855134      8.8470708
X        2.7680691     -6.0634252      9.0644000
X        3.2578505     -3.7903716      7.1674822
P       -0.4589182     -8.9055469      7.2027300
O       -1.4293519     -7.6935432      7.5575597
C       -2.2068044     -7.6231197      8.7870826
X       -2.6969661     -6.1789146      9.0171373
X       -2.2467804     -4.0275911      8.1889396
X       -1.0570763     -3.1005399      5.5176962
P       -5.8869159     -6.4053490      7.0129275
O       -6.9068749     -5.2250798      7.3533867
C       -8.3484885     -5.3959382      7.5284597
X       -9.0236189     -4.0463311      7.2877550
X       -8.4836502     -1.7910074      7.7729909
X       -5.9937786     -0.2961992      8.4777507
P       -9.5523055     -4.5167772      3.4712947
O      -10.9878976     -4.0624334      2.9453554
C      -11.3954135     -2.6812001      2.9066614
X      -12.6958236     -2.5482174      2.0993883
X      -13.6665423     -3.8555817      0.4254844
X      -13.3164256     -6.7187209     -0.4443273
P      -15.2918173     -2.2665420      4.9699734
O      -16.3046343     -1.0552891      4.7657819
C      -17.1785377     -0.9375323      3.6547705
X      -18.2265879      0.1508464      3.8463584
X      -19.6486930      0.9030586      5.5451834
X      -19.5709028      1.0121983      8.5504927
P      -16.3839058      3.2053099      2.2407995
O      -17.2770282      3.8871364      1.1123279
C      -16.8897927      3.8947003     -0.2529925
X      -16.0249063      2.6927629     -0.5807704
X      -16.3156092      0.6457588     -1.6653151
X      -18.5099997     -0.0686074     -3.5904509
P      -14.0063368      4.2294125     -3.4118258
O      -13.5888892      3.1775241     -4.4891001
C      -14.3538870      2.8752547     -5.6297770
X      -14.6649189      4.1370444     -6.4441891
X      -14.9710558      6.4172020     -5.9666059
X      -13.9133458      8.3673586     -3.8938890
P      -11.5339809      4.4204246     -8.5259659
O      -11.2789401      5.9249296     -9.0892133
C      -11.0046479      6.0680036    -10.4612251
X      -10.6264943      7.5069692    -10.8069089
X      -11.2172722      9.6766144    -10.1177630
X      -12.1942146     10.4057859     -7.7704822
X      -12.4257157     12.5210723     -7.4183159
P       -6.9444988      7.1595540     -9.7812141
O       -6.5372234      8.0793731     -8.5347461
C       -7.0412509      7.8432208     -7.2122446
X       -6.4258818      6.5966038     -6.5994289
X       -5.2493822      4.6941735     -7.3369622
X       -3.9304040      4.5336009     -9.6250852
X       -1.9817521      3.5334189     -9.3647541
P       -3.6566685      8.3002370     -4.5597081
O       -3.7780756      7.8458102     -3.0667986
C       -3.9186934      8.8410934     -2.0493893
X       -4.1247795      8.1533034     -0.7116357
X       -4.8436499      6.0671483      0.1070321
X       -4.8174586      3.3465745     -1.1956737
P       -0.5193681      8.0222766      0.4746135
O       -0.2062390      6.7825580      1.4013410
C       -1.0207465      6.4342222      2.5373048
X       -0.3409864      5.5099970      3.5288370
X        1.1608386      3.7185920      3.4871019
X        2.9149770      2.9151056      1.6797619
X        4.3524238      1.3660250      2.2405189
P        1.2911002      8.0919685      5.8111468
O        1.6304369      7.3924723      7.2241979
C        1.3489344      8.0617694      8.4698075
X        1.7814450      7.1650342      9.6128862
X        1.8543511      4.8320828      9.8555045
X        2.5821159      3.3665013      7.7813173
X        2.6659923      1.0073040      8.3459114
P        5.5261762      8.0597173      9.7385330
O        6.3811376      6.8253712     10.2818370
C        7.5777788      7.0442115     11.0780531
X        8.6885120      7.5390990     10.1186057
X        9.2273935      9.5471154      9.0549404
X        8.2361572     12.3627249      9.4828691
P       11.7909790      6.5323331     12.1037972
O       12.8429143      5.6224687     11.3277104
C       13.1004970      4.3166601     11.8769762
X       14.1541023      3.5788997     11.0567065
X       16.4586097      3.2769363     11.2374788
X       18.1510350      3.4365669     13.7162097
P       13.1481856     -0.0414738     11.7426130
O       14.0270245     -1.0733900     10.8463812
C       13.5771877     -2.3499969     10.4170128
X       14.5554331     -2.9700173      9.4265879
X       16.4980125     -2.2913446      8.2671605
X       18.2595647     -0.5475265      9.0807980
X       20.3218590     -0.5886182      7.7666594
   142
  Step:          825 Total energy:    2020.9952777896881      Temperature:   0.53342976485377069     
O       -4.2861126     -5.3000863    -15.1345733
C       -3.1445219     -4.6365593    -14.6260607
X       -1.9530502     -4.8768246    -15.5573365
X       -1.4761498     -6.2517325    -17.3959508
X       -3.1840828     -7.1588808    -19.1796233
X       -2.0787917     -8.0565160    -21.1583815
P       -1.6644740     -1.4127545    -17.1284319
O       -0.6102868     -1.3315434    -18.2696311
C        0.8158464     -1.2991746    -18.1054531
X        1.2931146     -0.1210658    -17.2655013
X        0.4803318      1.9657185    -16.5907111
X       -2.0247985      2.5928080    -16.1219694
X       -2.2299076      4.9667175    -15.5897127
P        1.9334772     -1.8663427    -13.9056078
O        2.9491329     -1.0931110    -12.9633733
C        4.3444312     -1.3125890    -12.9685728
X        5.0058577     -0.7910808    -11.6931895
X        4.3999436      0.6720780     -9.9545037
X        1.9386492      1.1474529     -9.1760322
X        1.7884030      1.8957007     -6.8416146
P        4.6402024     -3.9877924     -9.6685999
O        5.2731008     -3.7819726     -8.2097919
C        6.4079541     -4.5240327     -7.8736485
X        6.6904346     -4.2809578     -6.3936691
X        6.1804490     -5.3826263     -4.3877852
X        5.9232669     -7.9522371     -3.9386684
X        7.1494558     -8.5039910     -1.8955154
P       10.4579314     -4.8505767     -6.4095938
O       11.0578590     -5.6140566     -5.1252610
C       12.4021120     -6.0010288     -5.0248017
X       12.8804462     -6.1552841     -3.5951972
X       12.2459560     -5.2829883     -1.5084121
X        9.5923333     -4.1637069     -0.4440769
P       11.7869485     -9.7711424     -2.8894870
O       12.0350186    -10.0934426     -1.3509648
C       11.4082148    -11.2690845     -0.7448115
X       11.8316397    -11.3136600      0.7013481
X       13.7235189    -10.6405283      1.8969326
X       15.2229391     -8.6558324      1.0872692
X       16.4767927     -7.6078918      2.9310468
P        8.9976791     -9.0997822      1.9821153
O        9.2169330     -8.7346830      3.5287662
C        9.2441884     -9.7332263      4.5659061
X        8.9401771     -9.1699582      5.9265424
X        8.9445408     -7.0744741      6.9627364
X        8.5582694     -4.8668041      5.6383722
X        8.1542337     -3.0103709      7.1948496
P        5.1476927     -9.4204388      5.7605374
O        4.5061141     -8.6228808      7.0065274
C        3.7768981     -9.3666823      7.9957826
X        2.9639911     -8.3771768      8.8389979
X        2.8066170     -6.0556882      9.0717243
X        3.2602781     -3.7566726      7.1635608
P       -0.4839594     -8.9152290      7.2009585
O       -1.4219923     -7.6434898      7.5103639
C       -2.1549215     -7.5700747      8.7564185
X       -2.7224405     -6.2216482      9.0659002
X       -2.2265495     -4.1088257      8.1674172
X       -1.0666045     -3.1163620      5.5183019
P       -5.9178314     -6.4075813      7.0843633
O       -6.9424490     -5.2184769      7.4164699
C       -8.3288062     -5.3380812      7.4798297
X       -9.0323490     -4.0342378      7.2252441
X       -8.5221175     -1.8147180      7.7952097
X       -5.9829541     -0.2869962      8.4744831
P       -9.5339067     -4.5500795      3.4438958
O      -10.9663573     -4.0344557      2.9915656
C      -11.3871237     -2.6558672      2.8664976
X      -12.6812194     -2.5556359      2.0777881
X      -13.7507684     -3.8294773      0.4447238
X      -13.3095869     -6.7125024     -0.4433712
P      -15.2990474     -2.3075087      4.9246212
O      -16.3174260     -1.0522338      4.7717776
C      -17.1354728     -0.8971728      3.6189078
X      -18.2223076      0.1743093      3.7789541
X      -19.5976555      0.9262790      5.5360722
X      -19.5650102      0.9861392      8.5626693
P      -16.3958946      3.2011025      2.2500039
O      -17.2842970      3.8599192      1.0662831
C      -16.8556096      3.9381285     -0.2828724
X      -15.9861159      2.7251779     -0.6168801
X      -16.3341583      0.6250461     -1.6135541
X      -18.5068952     -0.0767771     -3.5520371
P      -13.9935535      4.2919243     -3.4219675
O      -13.5708279      3.1304738     -4.4585119
C      -14.3370048      2.8002973     -5.6492377
X      -14.7392118      4.0647045     -6.4184922
X      -14.9491696      6.3757765     -5.9482703
X      -13.8939648      8.3709679     -3.8899464
P      -11.5492220      4.4549453     -8.5019562
O      -11.2454636      5.8820828     -9.0616613
C      -11.0790191      6.0972023    -10.4637115
X      -10.6138882      7.5103459    -10.7708381
X      -11.2575677      9.6382239    -10.0559088
X      -12.1940408     10.3989686     -7.7393621
X      -12.4059569     12.5677555     -7.4141747
P       -6.8736471      7.1465648     -9.8094037
O       -6.5373461      8.1219285     -8.5884906
C       -6.9679786      7.8441137     -7.2456583
X       -6.4236055      6.6205211     -6.5962557
X       -5.3342864      4.7148014     -7.4047318
X       -3.9141875      4.4893191     -9.6069574
X       -2.0045506      3.5027823     -9.3528759
P       -3.7011639      8.3041069     -4.5853191
O       -3.7581712      7.8214625     -3.0581446
C       -3.8902772      8.7892251     -2.0160221
X       -4.1366631      8.1474171     -0.6818547
X       -4.7807414      6.0609194      0.0979090
X       -4.8011427      3.3535854     -1.1784528
P       -0.5279683      8.0363393      0.4383420
O       -0.2633513      6.7566981      1.3815006
C       -1.0175094      6.4761009      2.5901987
X       -0.3215693      5.5010461      3.5404887
X        1.1941709      3.7131188      3.5021617
X        2.9200802      2.9015420      1.6812376
X        4.3416060      1.3580937      2.2562863
P        1.3059197      8.0541725      5.8085220
O        1.6350550      7.3929906      7.2056148
C        1.4427688      8.0684818      8.4097913
X        1.7543155      7.1285417      9.5739953
X        1.8608399      4.8152641      9.8597029
X        2.5530955      3.3948815      7.7921288
X        2.6732747      0.9695248      8.3714973
P        5.5675318      8.0542061      9.7413343
O        6.3906422      6.8421778     10.3129770
C        7.5594974      7.0092815     11.0782502
X        8.6742282      7.5560281     10.1543518
X        9.1657922      9.5412648      9.0544240
X        8.2076488     12.3578997      9.4712548
P       11.7524309      6.5144751     12.1334841
O       12.8098698      5.6099098     11.3678518
C       13.0751991      4.2348909     11.8234416
X       14.1634388      3.5968146     10.9841675
X       16.4518300      3.3457683     11.2113685
X       18.1341707      3.4531146     13.7232056
P       13.1834786     -0.0584081     11.7529821
O       14.0391005     -1.0778686     10.8939960
C       13.5607548     -2.3365585     10.3821049
X       14.5872684     -3.0021665      9.4715756
X       16.4784539     -2.2831598      8.2817228
X       18.2633922     -0.5328372      9.0992838
X       20.3262189     -0.5923599      7.7181741
   142
  Step:          850 Total energy:    2020.0507286043842      Temperature:   0.53480743113888318     
O       -4.3253263     -5.2403912    -15.1079317
C       -3.1384057     -4.5767747    -14.6482588
X       -1.9702729     -4.8157844    -15.5912213
X       -1.4592550     -6.2683743    -17.3322395
X       -3.1726610     -7.1486430    -19.1364745
X       -2.0788427     -8.0491742    -21.1506275
P       -1.7072246     -1.3992992    -17.1605524
O       -0.5639659     -1.3627533    -18.3190485
C        0.8645954     -1.3162026    -18.0280298
X        1.3308021     -0.0991649    -17.2201080
X        0.5007959      1.9992218    -16.6491963
X       -2.0238556      2.5761436    -16.1299743
X       -2.2583385      4.9634884    -15.6201124
P        1.8984774     -1.9109471    -13.9071547
O        2.9597607     -1.0809312    -12.9938966
C        4.3635748     -1.3648984    -12.9739187
X        5.0752324     -0.8080870    -11.6951328
X        4.3932286      0.6497287     -9.9728480
X        1.9459917      1.1479689     -9.1799594
X        1.7738268      1.8875579     -6.8201241
P        4.6482866     -3.9493359     -9.6700284
O        5.2940837     -3.8429830     -8.2286269
C        6.4386810     -4.5896931     -7.8135970
X        6.7161708     -4.3565568     -6.3540802
X        6.1419621     -5.3917564     -4.3608356
X        5.9439407     -7.9734205     -3.9258670
X        7.1363732     -8.5011736     -1.8726778
P       10.4717452     -4.7814742     -6.4098476
O       11.0520051     -5.5741550     -5.1525102
C       12.4084124     -6.0369629     -5.0310956
X       12.8879828     -6.1664511     -3.5646490
X       12.2734407     -5.2429739     -1.5068594
X        9.6160265     -4.1637142     -0.4360269
P       11.8103338     -9.7395795     -2.9011980
O       12.0608627    -10.1041321     -1.3847011
C       11.4272162    -11.2253623     -0.7696457
X       11.8107483    -11.2906981      0.6758043
X       13.7297895    -10.7099781      1.8850036
X       15.1737987     -8.6600549      1.0669714
X       16.4553437     -7.6255515      2.8910491
P        8.9908889     -9.0664494      2.0325455
O        9.1978892     -8.7117834      3.5543672
C        9.2931411     -9.7526751      4.5348713
X        8.9420921     -9.2064615      5.9169021
X        8.9055231     -7.1078732      6.9354098
X        8.5390038     -4.8362978      5.6230025
X        8.1636212     -3.0044369      7.1853432
P        5.1411913     -9.3554894      5.7752608
O        4.4772844     -8.6451826      7.0032270
C        3.7083640     -9.3333511      7.9961014
X        2.9339612     -8.3661172      8.8781008
X        2.8041356     -6.0482847      9.0186825
X        3.2677799     -3.7340302      7.1629188
P       -0.5066370     -8.8753792      7.2052715
O       -1.3973430     -7.6401721      7.5662423
C       -2.1775823     -7.6374206      8.7275410
X       -2.6308828     -6.2369514      9.0336481
X       -2.2144730     -4.0607056      8.1889970
X       -1.0759323     -3.1320233      5.5157992
P       -5.9944098     -6.4395684      7.1515092
O       -6.9338174     -5.1737054      7.4430230
C       -8.3240613     -5.3658348      7.4269948
X       -8.9989050     -3.9891157      7.2108101
X       -8.4920384     -1.7906417      7.8043327
X       -5.9790258     -0.2868128      8.4729200
P       -9.5356664     -4.5438712      3.4481424
O      -11.0075932     -4.0453903      2.9885082
C      -11.3953039     -2.6562481      2.8538071
X      -12.7011246     -2.5871078      2.0632407
X      -13.7197896     -3.8820403      0.4044358
X      -13.2956864     -6.7083588     -0.4483777
P      -15.3200769     -2.3134938      4.8866006
O      -16.3145433     -1.0451059      4.8001262
C      -17.0740232     -0.8219179      3.5948880
X      -18.2245417      0.1894499      3.7617243
X      -19.5112455      0.9657905      5.5615044
X      -19.5559162      0.9628517      8.5689023
P      -16.4341604      3.1866469      2.2453870
O      -17.2686190      3.8135260      1.0466674
C      -16.7871055      3.9556166     -0.2798169
X      -15.9516974      2.7386721     -0.6227336
X      -16.3707730      0.6326756     -1.5533891
X      -18.5061795     -0.0915260     -3.5231243
P      -13.9807797      4.3146478     -3.4666812
O      -13.5577873      3.1768105     -4.4790535
C      -14.3366459      2.8222330     -5.6277703
X      -14.7568328      4.0142894     -6.3846521
X      -14.9727167      6.2970694     -5.8943249
X      -13.8712536      8.3760534     -3.8885950
P      -11.5382039      4.4260141     -8.4626000
O      -11.3029662      5.9109400     -9.0397966
C      -11.0432162      6.0822984    -10.4671642
X      -10.6096420      7.4926015    -10.7503779
X      -11.1963475      9.6666736    -10.0289862
X      -12.2062024     10.4216205     -7.6945790
X      -12.3766727     12.5806051     -7.4195445
P       -6.8277528      7.1400227     -9.8335277
O       -6.4941688      8.1056574     -8.6143712
C       -7.0141316      7.9693289     -7.2786611
X       -6.4601023      6.6511951     -6.6724771
X       -5.3719919      4.6710231     -7.4188667
X       -3.9172747      4.4543412     -9.5804859
X       -2.0056121      3.4630267     -9.3440480
P       -3.7385176      8.3042807     -4.6065616
O       -3.7347292      7.8263039     -3.0862317
C       -3.9178725      8.7928800     -2.0400846
X       -4.1288035      8.1861349     -0.6282370
X       -4.8363072      6.0741737      0.1364341
X       -4.7836539      3.3477104     -1.1672425
P       -0.5137061      8.0105948      0.4316151
O       -0.2459509      6.7471908      1.3760646
C       -0.9725000      6.4951573      2.5787479
X       -0.3293524      5.5153211      3.5608900
X        1.1855248      3.7043868      3.4999303
X        2.9073900      2.8835727      1.6703731
X        4.3390433      1.3543802      2.2814909
P        1.3178381      8.0341830      5.7757615
O        1.6781250      7.3869435      7.1980157
C        1.4932462      8.0818641      8.4182228
X        1.8491456      7.1667429      9.5897408
X        1.8640431      4.8391668      9.8851514
X        2.5377657      3.3561996      7.8149646
X        2.6722733      0.9854853      8.3862501
P        5.5336135      8.0554093      9.7248900
O        6.3806104      6.8205977     10.3907454
C        7.5948007      7.0344202     11.0806345
X        8.6885423      7.5048659     10.1642624
X        9.0743576      9.5044535      9.0153232
X        8.1736001     12.3582238      9.4636612
P       11.7338953      6.5074635     12.1999723
O       12.7212352      5.5617311     11.3831510
C       13.0290971      4.2136583     11.7373894
X       14.1599697      3.5934591     10.9251934
X       16.4915342      3.4105006     11.1973283
X       18.1150602      3.4715661     13.7258339
P       13.2011956     -0.0627118     11.7589560
O       14.1043243     -1.0842007     10.9215097
C       13.5561183     -2.3098632     10.3659453
X       14.6008992     -2.9820389      9.5098766
X       16.4868461     -2.2819486      8.3270450
X       18.2949818     -0.5131285      9.0915023
X       20.2945351     -0.6012537      7.6970559
   142
  Step:          875 Total energy:    2023.3987341282841      Temperature:   0.55535502787256030     
O       -4.3714998     -5.1698603    -15.1059672
C       -3.1556466     -4.5131861    -14.6777485
X       -1.9458574     -4.8143188    -15.5684587
X       -1.4461666     -6.2869427    -17.3254881
X       -3.1586705     -7.1442314    -19.1092478
X       -2.0799137     -8.0297173    -21.1268996
P       -1.7077694     -1.3731438    -17.2279832
O       -0.5126241     -1.3475880    -18.2358022
C        0.8720162     -1.3330913    -17.9959829
X        1.3488288     -0.1131802    -17.2130769
X        0.4918946      2.0035740    -16.7104624
X       -2.0143743      2.5611847    -16.1476921
X       -2.2890827      4.9478688    -15.6470414
P        1.9183641     -1.9123618    -13.8841962
O        2.9901274     -1.1294708    -13.0076702
C        4.3834777     -1.3390631    -12.9904095
X        4.9977727     -0.8108687    -11.7193771
X        4.4071725      0.6483325     -9.9941392
X        1.9522963      1.1476528     -9.1573499
X        1.7701805      1.8645239     -6.8312028
P        4.6408317     -3.9548380     -9.6685435
O        5.3033407     -3.8900163     -8.2254801
C        6.4866812     -4.6528213     -7.8083710
X        6.7172949     -4.3811119     -6.3272285
X        6.1386507     -5.3930640     -4.2832188
X        5.9549467     -7.9902018     -3.9288768
X        7.1207317     -8.5229333     -1.8353283
P       10.5343457     -4.7508992     -6.4195993
O       11.0427817     -5.4991421     -5.0903006
C       12.3806229     -6.0639214     -5.0351319
X       12.8828881     -6.1197823     -3.5991195
X       12.2670412     -5.2704495     -1.5256062
X        9.6354816     -4.1558285     -0.4248340
P       11.8272679     -9.7052090     -2.9496133
O       12.0749667    -10.1464262     -1.4291864
C       11.4016164    -11.2102897     -0.7894725
X       11.7965712    -11.2969074      0.6868908
X       13.7174346    -10.6769203      1.8941822
X       15.1351932     -8.6651978      1.0560221
X       16.4333097     -7.6518202      2.8469124
P        8.9993387     -9.0305252      2.0602384
O        9.2056323     -8.7093529      3.6093718
C        9.2604896     -9.7812064      4.5469006
X        8.9625140     -9.2123324      5.9381863
X        8.9259907     -7.0842656      6.8587503
X        8.5292566     -4.8269656      5.6115076
X        8.1702284     -2.9865678      7.1827562
P        5.1370808     -9.3186275      5.7647215
O        4.3928493     -8.6174514      7.0203172
C        3.6847514     -9.3553946      8.0274522
X        2.9089597     -8.3787396      8.8767262
X        2.7450885     -6.0173840      9.0453868
X        3.2751361     -3.7098076      7.1620301
P       -0.4606025     -8.8574040      7.2030225
O       -1.4007480     -7.6054298      7.5610091
C       -2.2058525     -7.6340956      8.7445233
X       -2.6782337     -6.2049525      9.0080417
X       -2.1252109     -4.0630508      8.2236233
X       -1.0850800     -3.1419665      5.5091739
P       -6.0304994     -6.4810457      7.2374800
O       -6.8929385     -5.1767391      7.4149063
C       -8.3265791     -5.3281174      7.4418666
X       -9.0066458     -3.9689867      7.1985164
X       -8.5158595     -1.7592242      7.7831284
X       -5.9683180     -0.2848636      8.4762318
P       -9.5851427     -4.4958650      3.4569992
O      -11.0180927     -4.0847752      2.9586396
C      -11.4327483     -2.7361298      2.8773840
X      -12.7195310     -2.5623362      2.0705298
X      -13.6989609     -3.8440276      0.3186921
X      -13.2751783     -6.7226346     -0.4628895
P      -15.3437550     -2.2978592      4.8787428
O      -16.3000968     -1.0419942      4.7691961
C      -17.0695541     -0.8186739      3.5928458
X      -18.1544185      0.2083755      3.8080329
X      -19.5329946      0.9760799      5.5515055
X      -19.5411497      0.9451593      8.5693897
P      -16.4673814      3.1832886      2.2530217
O      -17.3090547      3.7993023      1.0424265
C      -16.7092584      3.9727969     -0.2597846
X      -15.9083183      2.7300429     -0.5973424
X      -16.3761877      0.6421513     -1.5310251
X      -18.5100458     -0.1128004     -3.5033524
P      -13.9804773      4.3249963     -3.5013060
O      -13.4864659      3.2240501     -4.5464295
C      -14.3478290      2.7775253     -5.6044776
X      -14.7282771      4.0499513     -6.3689821
X      -15.0158902      6.3018308     -5.8081614
X      -13.8516729      8.3744161     -3.8917381
P      -11.5156822      4.4057854     -8.4245479
O      -11.4294814      5.8604308     -9.0428443
C      -10.9564492      6.0774895    -10.3877789
X      -10.5784014      7.5026184    -10.7174733
X      -11.1333362      9.6278630     -9.9191689
X      -12.2147043     10.4421601     -7.6712556
X      -12.3467983     12.5892923     -7.4225449
P       -6.8350205      7.1485573     -9.8388586
O       -6.4205145      8.1333473     -8.6662515
C       -7.0380720      7.9103810     -7.4119324
X       -6.5349778      6.6779634     -6.7042805
X       -5.4238209      4.7584180     -7.3936509
X       -3.9440925      4.4185231     -9.5576883
X       -1.9891119      3.4185382     -9.3324390
P       -3.7549626      8.3075438     -4.6200716
O       -3.7630359      7.8710718     -3.0686890
C       -3.9426515      8.8160601     -2.0326948
X       -4.1821293      8.1380592     -0.6932616
X       -4.8746344      6.0560046      0.1203139
X       -4.7678752      3.3540037     -1.1542462
P       -0.4762690      7.9598160      0.4440536
O       -0.1723604      6.7241612      1.4070374
C       -0.9700532      6.4765591      2.5391535
X       -0.3370909      5.5128127      3.5248853
X        1.1559064      3.7017774      3.4364889
X        2.8765825      2.8599132      1.6542497
X        4.3438308      1.3624108      2.3066873
P        1.3483351      8.0381659      5.7701124
O        1.7388605      7.4101268      7.1932380
C        1.5432213      8.1068523      8.4530700
X        1.9038406      7.1895882      9.5965980
X        1.9184011      4.8683010      9.8605552
X        2.5215131      3.3312977      7.8410148
X        2.6682619      0.9844537      8.4011093
P        5.5282578      8.0112473      9.7311441
O        6.3562072      6.8884467     10.4493462
C        7.6047350      7.0122510     11.1216442
X        8.6517485      7.4960626     10.1275655
X        9.0156758      9.5314399      8.9532261
X        8.1391609     12.3514255      9.4602001
P       11.7295090      6.4917499     12.2753029
O       12.6801243      5.5313769     11.3451593
C       12.9998902      4.2144949     11.7231660
X       14.1281409      3.5822833     10.9057187
X       16.4910808      3.4621894     11.2032680
X       18.0956903      3.4892658     13.7248942
P       13.2281264     -0.0480940     11.7512584
O       14.1252040     -1.0722123     10.9570419
C       13.5715611     -2.2602484     10.4055145
X       14.6069757     -2.9370041      9.5051410
X       16.5585249     -2.3052809      8.3768776
X       18.3053313     -0.4980961      9.0867386
X       20.2772258     -0.6143327      7.6736410
   142
  Step:          900 Total energy:    2024.6078488644366      Temperature:   0.55499830929007798     
O       -4.3555504     -5.0867896    -15.1443488
C       -3.1658084     -4.5012768    -14.6663066
X       -1.9538974     -4.7987090    -15.5271306
X       -1.4209944     -6.2762721    -17.3087312
X       -3.1523735     -7.1392969    -19.0841844
X       -2.0784181     -8.0009889    -21.1010350
P       -1.7181261     -1.3585010    -17.2440049
O       -0.4700556     -1.3091156    -18.3030006
C        0.9179671     -1.3995937    -17.9718316
X        1.3853108     -0.1459745    -17.2147188
X        0.4779658      1.9842201    -16.7232650
X       -2.0036421      2.5506721    -16.1765149
X       -2.3204276      4.9182215    -15.6651843
P        1.9450113     -1.9115401    -13.8768165
O        2.9561486     -1.1399077    -12.9373856
C        4.3939531     -1.3213046    -13.0117264
X        4.9790425     -0.8050904    -11.7129831
X        4.3932046      0.6803485     -9.9940964
X        1.9516778      1.1434798     -9.1597854
X        1.7820087      1.8446916     -6.8352086
P        4.6271988     -4.0133018     -9.6503674
O        5.3177876     -3.8930750     -8.2174127
C        6.4388266     -4.6720409     -7.7785486
X        6.7319422     -4.3808771     -6.3226889
X        6.1828953     -5.4260004     -4.2929112
X        5.9733790     -7.9953870     -3.9196195
X        7.0916672     -8.5550192     -1.8044479
P       10.5785052     -4.7462505     -6.4030630
O       11.0606497     -5.3772299     -5.0667242
C       12.3454515     -5.9932555     -5.0453012
X       12.8812623     -6.1295038     -3.6532623
X       12.2796451     -5.2872994     -1.5504291
X        9.6499584     -4.1465096     -0.4115411
P       11.8258112     -9.7057476     -3.0014457
O       12.0883426    -10.1730625     -1.4722167
C       11.3714603    -11.2141432     -0.8146060
X       11.7612713    -11.2936186      0.6723740
X       13.6419494    -10.6521267      1.9299649
X       15.0937809     -8.6674185      1.0250192
X       16.4251299     -7.6718941      2.8254236
P        9.0306940     -8.9869560      2.0762113
O        9.2542666     -8.7594929      3.6421157
C        9.1885411     -9.7982573      4.5821748
X        8.9357393     -9.2082736      5.9666320
X        9.0321202     -7.0454822      6.8996928
X        8.5250125     -4.8035451      5.5985013
X        8.1759552     -2.9619428      7.1856377
P        5.1163194     -9.2990646      5.7659549
O        4.3689580     -8.6253810      6.9775129
C        3.7102966     -9.3062397      8.0409713
X        2.8988217     -8.3393271      8.8809108
X        2.7280294     -5.9871231      8.9991419
X        3.2747538     -3.7013096      7.1717149
P       -0.4136578     -8.8219892      7.1836471
O       -1.4172035     -7.6380128      7.5272796
C       -2.2126154     -7.5727583      8.7250684
X       -2.7225098     -6.1731083      9.0562983
X       -2.1007075     -4.1051610      8.2493411
X       -1.0892124     -3.1459483      5.5011662
P       -6.0379599     -6.5487653      7.3185477
O       -6.9080286     -5.2002477      7.3424353
C       -8.3508913     -5.2323251      7.4939274
X       -9.0163426     -3.9430200      7.2302343
X       -8.5290839     -1.7115247      7.7510414
X       -5.9623258     -0.2859687      8.4706454
P       -9.5988087     -4.4592220      3.4539916
O      -11.1089377     -4.0968913      2.9498728
C      -11.5509482     -2.7452140      2.9121347
X      -12.7412625     -2.5999274      2.0273778
X      -13.6618398     -3.8692559      0.2796909
X      -13.2579281     -6.7315072     -0.4838401
P      -15.3381151     -2.3007901      4.8797364
O      -16.2850359     -1.0065373      4.7456857
C      -17.1355622     -0.8515152      3.6107259
X      -18.1603348      0.2236555      3.8285892
X      -19.5701012      0.9460861      5.5632489
X      -19.5189584      0.9262842      8.5668580
P      -16.4825340      3.2145325      2.2597415
O      -17.3200451      3.7743541      1.0448450
C      -16.6630215      3.9743757     -0.2191496
X      -15.8577851      2.7434010     -0.5852919
X      -16.3500098      0.6550079     -1.5506081
X      -18.5177238     -0.1373940     -3.4867050
P      -13.9628705      4.3260571     -3.5177234
O      -13.4705796      3.2115804     -4.5133313
C      -14.2555751      2.8113834     -5.6130478
X      -14.7531171      4.0656453     -6.3585582
X      -15.0492609      6.3344738     -5.8323604
X      -13.8346005      8.3768690     -3.8879135
P      -11.5101073      4.3989131     -8.3964587
O      -11.4776392      5.8472975     -9.0708671
C      -10.9408342      6.0218819    -10.3660836
X      -10.4850903      7.4742286    -10.6262878
X      -11.1007975      9.6271056     -9.8930974
X      -12.2198327     10.4467839     -7.6496871
X      -12.3293852     12.6264100     -7.4163246
P       -6.8462069      7.1415320     -9.8758412
O       -6.4101564      8.1305070     -8.6970368
C       -7.0372843      7.9775169     -7.4325840
X       -6.5686100      6.6873038     -6.7385933
X       -5.4204769      4.7368511     -7.3426585
X       -3.9385838      4.3747879     -9.5369033
X       -2.0085699      3.3856586     -9.3156207
P       -3.7587003      8.3213938     -4.6269012
O       -3.8368288      7.8563496     -3.1137373
C       -4.0345543      8.7995425     -2.0574227
X       -4.1811143      8.1457477     -0.6941765
X       -4.8737861      6.0689864      0.1129149
X       -4.7534416      3.3555048     -1.1470978
P       -0.4497452      7.9123248      0.4291239
O       -0.1190209      6.7047797      1.4226439
C       -0.9966401      6.4559463      2.5152069
X       -0.3502872      5.5012918      3.5004542
X        1.1044081      3.6414797      3.4318683
X        2.8612767      2.8214584      1.6263394
X        4.3382424      1.3959976      2.3276967
P        1.3944173      8.0588737      5.7932121
O        1.7597112      7.4324783      7.1746635
C        1.6015048      8.1298898      8.4226478
X        1.8477661      7.1998640      9.5839974
X        1.9650276      4.8660421      9.9284563
X        2.5111455      3.3489334      7.8460527
X        2.6610529      0.9371613      8.4314363
P        5.5795846      8.0060583      9.7413771
O        6.3099159      6.8247143     10.5351663
C        7.6242105      7.0649496     11.1400029
X        8.6463780      7.5254274     10.1226444
X        8.9799344      9.5337319      8.9392489
X        8.1066365     12.3439626      9.4611851
P       11.7213876      6.4630599     12.2623477
O       12.6768681      5.5563643     11.3962929
C       12.9706585      4.2128376     11.7361087
X       14.1062424      3.6208497     10.9301146
X       16.4311499      3.4539362     11.2142559
X       18.0783612      3.5065759     13.7196531
P       13.2377688     -0.0018510     11.7615244
O       14.1651365     -1.0520372     10.9788921
C       13.6179413     -2.2159904     10.4095529
X       14.6019392     -2.9354330      9.5012209
X       16.5803091     -2.3246958      8.3770496
X       18.2993367     -0.4825746      9.1072711
X       20.2801634     -0.6248061      7.6362997
   142
  Step:          925 Total energy:    2022.4435472031262      Temperature:   0.55377064969562106     
O       -4.3415894     -5.0032710    -15.2261360
C       -3.1341911     -4.5430314    -14.6095313
X       -1.9479876     -4.7573363    -15.5286500
X       -1.4698895     -6.2392402    -17.2777797
X       -3.1572264     -7.1258156    -19.0502467
X       -2.0637967     -7.9703288    -21.0848560
P       -1.6698087     -1.3491903    -17.2723264
O       -0.5113442     -1.3062891    -18.3131903
C        0.8663557     -1.3753138    -17.9738358
X        1.4137695     -0.2017438    -17.2163379
X        0.5229401      1.9201184    -16.6940432
X       -2.0003503      2.5280135    -16.2206789
X       -2.3530711      4.9010121    -15.6682114
P        1.9544265     -1.9177081    -13.8750451
O        2.9013737     -1.1123965    -12.8881024
C        4.3482234     -1.2813785    -12.9515964
X        5.0298766     -0.8091530    -11.6822252
X        4.4030155      0.6985302     -9.9784763
X        1.9409190      1.1376346     -9.1992066
X        1.8067505      1.8259687     -6.8217063
P        4.6220271     -4.0667638     -9.6377813
O        5.3070628     -3.8886016     -8.1996129
C        6.4146013     -4.6399939     -7.8007520
X        6.7435652     -4.3740203     -6.3467743
X        6.2683889     -5.4126186     -4.2915886
X        5.9896499     -7.9986888     -3.8926337
X        7.0538732     -8.5865673     -1.7892431
P       10.5413402     -4.7233244     -6.4232442
O       11.1447813     -5.2537184     -5.0162360
C       12.3880250     -5.9502644     -5.0588812
X       12.8822970     -6.1313919     -3.6426660
X       12.2283464     -5.2892536     -1.5408400
X        9.6695982     -4.1385427     -0.3973679
P       11.8149198     -9.7632131     -3.0213786
O       12.0861262    -10.1640613     -1.5248899
C       11.3606572    -11.1898773     -0.8447947
X       11.7204831    -11.2727141      0.6229488
X       13.5387962    -10.6288024      1.9010050
X       15.0552848     -8.6711394      1.0006326
X       16.4142068     -7.6928858      2.8037352
P        9.0827851     -8.9662448      2.0947123
O        9.2936356     -8.7812013      3.6609483
C        9.1249764     -9.7937297      4.6636468
X        8.8780596     -9.1600033      6.0106377
X        9.1174297     -6.9833188      6.8813750
X        8.5291033     -4.7937995      5.5983403
X        8.1809481     -2.9495271      7.1726088
P        5.0903279     -9.3095376      5.7403702
O        4.3697232     -8.5596938      6.9645675
C        3.7545914     -9.2610432      8.0583664
X        2.9385041     -8.3104073      8.9010337
X        2.7154633     -5.9743108      9.0586560
X        3.2725876     -3.6887491      7.1792825
P       -0.4050427     -8.7826153      7.1485497
O       -1.4678764     -7.6390913      7.5359680
C       -2.2178598     -7.6427629      8.7509222
X       -2.6218415     -6.1904010      9.0530062
X       -2.2015369     -4.0344513      8.2272688
X       -1.0898705     -3.1497801      5.4933702
P       -6.0730086     -6.5982295      7.3882149
O       -6.9321011     -5.2643389      7.2642244
C       -8.3524855     -5.2471832      7.5592756
X       -9.0099861     -3.9053354      7.2646534
X       -8.5198340     -1.6072521      7.7149908
X       -5.9568530     -0.2919450      8.4605266
P       -9.6261124     -4.4232361      3.4348633
O      -11.0974025     -4.0834873      3.0288983
C      -11.5734719     -2.7256600      2.9174613
X      -12.8256917     -2.6089885      2.0333814
X      -13.6902317     -3.8521720      0.2371029
X      -13.2451246     -6.7495454     -0.5127460
P      -15.3309833     -2.2969724      4.8827950
O      -16.2303829     -0.9913131      4.7316826
C      -17.1517197     -0.8712962      3.6426757
X      -18.2607617      0.1815450      3.8147115
X      -19.6098038      0.9574448      5.5876588
X      -19.4966034      0.9076556      8.5720728
P      -16.4693363      3.2526615      2.2763791
O      -17.2990717      3.7695679      1.0048611
C      -16.6541886      3.9854983     -0.2352273
X      -15.8424923      2.7648248     -0.5981154
X      -16.3408642      0.7075298     -1.6268686
X      -18.5248855     -0.1615786     -3.4681274
P      -13.9540498      4.3350897     -3.4884694
O      -13.4624441      3.1546650     -4.4758476
C      -14.2423889      2.8531663     -5.6193592
X      -14.7178629      4.0759320     -6.3651944
X      -15.0275676      6.3385773     -5.8730075
X      -13.8199079      8.3755930     -3.8871986
P      -11.5351604      4.4141515     -8.3711023
O      -11.4314381      5.8476668     -9.0898076
C      -10.9126778      6.0084019    -10.3755301
X      -10.5128027      7.4585374    -10.5947799
X      -11.0886288      9.5949794     -9.8527628
X      -12.2191751     10.4664363     -7.6425488
X      -12.3259590     12.6489646     -7.4107474
P       -6.8079535      7.1220688     -9.9105779
O       -6.4287275      8.0837795     -8.7225262
C       -6.9879550      7.9813914     -7.4032309
X       -6.4926058      6.6849797     -6.7378696
X       -5.4147135      4.7162024     -7.4055094
X       -3.9379260      4.3353038     -9.5074230
X       -2.0374198      3.3448242     -9.2878164
P       -3.7855076      8.3297284     -4.6559260
O       -3.9264095      7.8196135     -3.1475594
C       -4.0540146      8.7876221     -2.0626090
X       -4.1814816      8.1657416     -0.6766531
X       -4.8394566      6.0702144      0.1580136
X       -4.7438425      3.3525402     -1.1420460
P       -0.4285835      7.8713002      0.3677699
O       -0.1479884      6.7080181      1.4059146
C       -0.9712721      6.4183293      2.5548126
X       -0.3441337      5.4528117      3.5324792
X        1.0468680      3.5968725      3.3886716
X        2.8160375      2.8004406      1.6038755
X        4.3382097      1.4194667      2.3473072
P        1.4192875      8.0927619      5.7519390
O        1.7542946      7.3863328      7.1749443
C        1.5214176      8.0932281      8.4115635
X        1.8727017      7.2199238      9.5991269
X        1.9052407      4.8916571      9.8824100
X        2.5158977      3.3266003      7.8732258
X        2.6447635      0.9378935      8.4553753
P        5.6215427      7.9714101      9.7708434
O        6.3610093      6.8405151     10.5715745
C        7.6192530      7.0909792     11.1782856
X        8.6178658      7.5292624     10.1761671
X        9.0242229      9.4882874      8.9374672
X        8.0739278     12.3404884      9.4652914
P       11.6791716      6.4689780     12.2205692
O       12.7422189      5.5994985     11.4121425
C       12.9455817      4.2004330     11.8070862
X       14.0686253      3.6398851     10.9660780
X       16.3680957      3.4208896     11.2105701
X       18.0689497      3.5261400     13.7178821
P       13.2452617      0.0311121     11.7731483
O       14.1865809     -1.0138269     10.9930645
C       13.6490530     -2.1972532     10.3919697
X       14.6411944     -2.9322185      9.5129609
X       16.5774808     -2.2818677      8.3626302
X       18.3096116     -0.4776245      9.1095957
X       20.2628343     -0.6326998      7.6199806
   142
  Step:          950 Total energy:    2021.0933172942216      Temperature:   0.57930871649550852     
O       -4.3263348     -4.9271945    -15.2888054
C       -3.1326777     -4.5030027    -14.5896450
X       -1.9297911     -4.7596454    -15.4959210
X       -1.4182697     -6.1882587    -17.2798580
X       -3.1715598     -7.1147992    -19.0304365
X       -2.0563201     -7.9309753    -21.0607998
P       -1.6719260     -1.3324292    -17.2513734
O       -0.4870588     -1.3059320    -18.3697577
C        0.9337125     -1.4280714    -18.0452098
X        1.3647347     -0.2106260    -17.2361632
X        0.5316770      1.9117025    -16.6296060
X       -1.9906216      2.5096992    -16.2679313
X       -2.3741101      4.8652881    -15.6611878
P        1.9417730     -1.9294725    -13.8576250
O        2.9074372     -1.0921828    -12.8922066
C        4.3002212     -1.2980193    -12.8813023
X        4.9780787     -0.8092013    -11.6386982
X        4.4241787      0.6926530     -9.9127982
X        1.9378059      1.1435027     -9.2141415
X        1.8376254      1.7907026     -6.8404198
P        4.6223983     -4.0797711     -9.6420134
O        5.2587048     -3.9109424     -8.1893089
C        6.4571019     -4.6017766     -7.8202818
X        6.7407122     -4.3666219     -6.3260789
X        6.3288736     -5.4285418     -4.3043849
X        5.9953107     -7.9803857     -3.8820127
X        7.0250989     -8.6268972     -1.7609774
P       10.5032688     -4.7073176     -6.4349045
O       11.2307523     -5.1233865     -5.0882335
C       12.4047094     -5.9137639     -5.0365547
X       12.9024994     -6.1495930     -3.6082946
X       12.2613005     -5.3532838     -1.4852964
X        9.6791377     -4.1292793     -0.3785370
P       11.8006852     -9.7989391     -3.0681137
O       12.0769828    -10.1682488     -1.5285580
C       11.2708689    -11.1910802     -0.8922229
X       11.6882863    -11.2813465      0.5713610
X       13.5254025    -10.6234419      1.8672730
X       15.0303933     -8.6684835      0.9949409
X       16.3969280     -7.7144280      2.7788225
P        9.1379100     -8.9560755      2.1146276
O        9.3382322     -8.7558308      3.6868619
C        9.0779966     -9.7773551      4.6931246
X        8.8505584     -9.1179803      6.0286993
X        9.1136556     -6.9585250      6.9278031
X        8.5328393     -4.7843373      5.5970265
X        8.1788959     -2.9401532      7.1572144
P        5.0310095     -9.3184195      5.7331368
O        4.3657869     -8.5170943      6.9317718
C        3.8039228     -9.2083317      8.0543712
X        2.9750611     -8.2535516      8.9145005
X        2.7543522     -5.9398422      9.1289080
X        3.2638033     -3.6812230      7.1902217
P       -0.4252033     -8.7533895      7.1095456
O       -1.4529195     -7.6366643      7.5255229
C       -2.0638625     -7.5867419      8.8079305
X       -2.6680227     -6.2033379      9.0260898
X       -2.2439299     -4.0786001      8.1412315
X       -1.0939409     -3.1519018      5.4941835
P       -6.1148697     -6.6463808      7.4462137
O       -6.9499284     -5.2925240      7.2404028
C       -8.3230750     -5.2126856      7.5969167
X       -8.9887065     -3.8860468      7.2299004
X       -8.5397523     -1.6119544      7.7102392
X       -5.9517185     -0.2953709      8.4500493
P       -9.6242665     -4.4019702      3.4595541
O      -11.1615716     -4.0273658      3.0821155
C      -11.5791755     -2.6645107      2.8626307
X      -12.8509719     -2.6359524      2.0255703
X      -13.7426709     -3.8997709      0.2947198
X      -13.2339044     -6.7536784     -0.5463884
P      -15.3270543     -2.2818724      4.8977502
O      -16.2525522     -0.9704301      4.7155329
C      -17.1996058     -0.8843873      3.6481932
X      -18.2983727      0.1564620      3.8123748
X      -19.6650863      0.9497950      5.5581587
X      -19.4758151      0.8856236      8.5805303
P      -16.4714273      3.2627841      2.3112437
O      -17.2427714      3.8121873      1.0165094
C      -16.6794752      4.0150254     -0.2547170
X      -15.8653467      2.8044524     -0.6312551
X      -16.3015474      0.7292582     -1.6476178
X      -18.5284341     -0.1844543     -3.4543249
P      -13.9326128      4.3176022     -3.4515585
O      -13.4896395      3.2015109     -4.4687973
C      -14.2953769      2.8152942     -5.5908887
X      -14.6697542      4.0820103     -6.3593366
X      -14.9449417      6.3651017     -5.8880726
X      -13.8090055      8.3664627     -3.8950121
P      -11.5473781      4.4330200     -8.3709673
O      -11.3622022      5.8544277     -9.0136482
C      -10.9431556      5.9978332    -10.3769942
X      -10.5362984      7.4410039    -10.6904255
X      -11.1101188      9.5478046     -9.8437597
X      -12.2203421     10.5049222     -7.6243647
X      -12.3178321     12.6560574     -7.4051626
P       -6.7664957      7.0903395     -9.9364655
O       -6.3672305      8.0887960     -8.7398905
C       -6.9353806      7.9133818     -7.4382941
X       -6.4646675      6.6938781     -6.7165846
X       -5.4703408      4.6578564     -7.3575994
X       -3.9598799      4.3241555     -9.5179340
X       -2.0446606      3.2847533     -9.2523691
P       -3.8188489      8.3171371     -4.6610717
O       -3.9587666      7.8622977     -3.1312503
C       -3.9869318      8.7790922     -2.0317352
X       -4.1885376      8.1211437     -0.6898632
X       -4.8071018      6.0313826      0.1664328
X       -4.7346579      3.3539924     -1.1347441
P       -0.4364095      7.8439247      0.2914773
O       -0.1915722      6.6798130      1.3815088
C       -0.9735299      6.4607171      2.5774407
X       -0.3341556      5.4514534      3.5396575
X        1.0036843      3.5090509      3.4297892
X        2.7753758      2.7736876      1.5926949
X        4.3324381      1.4457001      2.3576367
P        1.4276860      8.0591355      5.7220992
O        1.6940422      7.4526575      7.1509843
C        1.4986562      8.1068403      8.3766897
X        1.8705226      7.1886010      9.5550647
X        1.8404363      4.8703093      9.8824836
X        2.5237688      3.2884491      7.9024442
X        2.6254903      0.9535869      8.4780691
P        5.6178505      7.9476042      9.7791527
O        6.4193933      6.8235033     10.6052622
C        7.6243446      7.1300311     11.2971996
X        8.6393369      7.5576630     10.2140836
X        9.0061716      9.5348319      9.0226106
X        8.0557681     12.3190501      9.4627100
P       11.6489277      6.5034552     12.1896432
O       12.7248319      5.6420500     11.4288096
C       12.9621031      4.2786561     11.8507676
X       14.0576875      3.6096975     11.0217685
X       16.3625195      3.4072522     11.2490815
X       18.0488668      3.5463210     13.7131918
P       13.2505020      0.0289503     11.7766654
O       14.1753404     -0.9699820     10.9905193
C       13.6496485     -2.1901651     10.4125408
X       14.6877925     -2.8745989      9.5531953
X       16.5822541     -2.2772887      8.3045596
X       18.3296035     -0.4787137      9.0924658
X       20.2450947     -0.6365414      7.6182843
   142
  Step:          975 Total energy:    2021.6227341444501      Temperature:   0.59920044079257684     
O       -4.3234976     -4.8575358    -15.3284992
C       -3.1141842     -4.4648157    -14.6686215
X       -1.8853284     -4.7630417    -15.5060159
X       -1.4208413     -6.1431183    -17.3047113
X       -3.1741982     -7.1037273    -19.0074334
X       -2.0579356     -7.8814625    -21.0347084
P       -1.6379451     -1.3205433    -17.2417880
O       -0.5327868     -1.3595577    -18.3159079
C        0.8903066     -1.3503281    -18.1100688
X        1.3771388     -0.2126956    -17.2290393
X        0.5425666      1.8834859    -16.6401337
X       -1.9933155      2.4922727    -16.2652825
X       -2.3805427      4.8314107    -15.6851614
P        1.9070808     -1.9413990    -13.8351787
O        2.9014083     -1.0784015    -12.9128668
C        4.2965260     -1.3100914    -12.8921663
X        4.9209381     -0.8389605    -11.5587197
X        4.4202649      0.6801635     -9.8583181
X        1.9417918      1.1524645     -9.2105003
X        1.8701564      1.7448656     -6.8698399
P        4.6201567     -4.0667840     -9.6586174
O        5.2025995     -3.9679021     -8.1923820
C        6.4505493     -4.6049983     -7.7924733
X        6.7782361     -4.3129133     -6.3203007
X        6.3340353     -5.3811916     -4.2947236
X        5.9978648     -7.9730119     -3.8767462
X        6.9920925     -8.6695505     -1.7291285
P       10.5336537     -4.6851814     -6.4835127
O       11.2559510     -5.0389715     -5.0877993
C       12.4131821     -5.9021699     -5.0005974
X       12.8874064     -6.1445645     -3.5660762
X       12.2731324     -5.4161019     -1.4437532
X        9.6896486     -4.1235201     -0.3661984
P       11.7952447     -9.7884690     -3.1079219
O       12.0084712    -10.2152861     -1.6072017
C       11.2329723    -11.1775509     -0.8840094
X       11.6524977    -11.3349013      0.5580122
X       13.5478763    -10.6821949      1.7854267
X       15.0037857     -8.6596685      0.9877383
X       16.3839992     -7.7304321      2.7764688
P        9.1687813     -8.9324122      2.1493355
O        9.3906591     -8.7189023      3.6968737
C        9.0979316     -9.7263658      4.6741536
X        8.8192294     -9.1195138      6.0355601
X        9.0143221     -6.9860719      6.9725378
X        8.5500734     -4.7824753      5.5990706
X        8.1736940     -2.9152434      7.1449257
P        4.9937581     -9.3255597      5.7367978
O        4.3169339     -8.5012112      6.9037073
C        3.8079614     -9.1502466      8.0624537
X        2.9698691     -8.1891019      8.9128708
X        2.8024648     -5.8907080      9.1647810
X        3.2518643     -3.6766280      7.2030343
P       -0.4097358     -8.7534540      7.0784884
O       -1.4168423     -7.5857888      7.5309986
C       -2.0286274     -7.5309166      8.8269843
X       -2.6991284     -6.2226641      9.0555830
X       -2.3254713     -4.0689868      8.1419322
X       -1.0955759     -3.1471349      5.4836829
P       -6.1746488     -6.7115757      7.4914995
O       -6.9273428     -5.2996054      7.2797836
C       -8.3173038     -5.2156172      7.5349633
X       -8.9454336     -3.8708009      7.2238772
X       -8.5306789     -1.6545513      7.6858103
X       -5.9411288     -0.2975182      8.4361251
P       -9.6643570     -4.3765188      3.5072225
O      -11.1545401     -3.9807801      3.1140410
C      -11.5366344     -2.6617426      2.7935898
X      -12.8548921     -2.6198899      2.0120888
X      -13.8319909     -3.9678251      0.3654019
X      -13.2184418     -6.7530654     -0.5907764
P      -15.3433244     -2.2333489      4.9161106
O      -16.3280039     -0.9993608      4.7205638
C      -17.2357829     -0.8951427      3.6159526
X      -18.2865766      0.1927784      3.8300828
X      -19.6697668      0.8855536      5.5760596
X      -19.4556019      0.8646228      8.5787508
P      -16.4701972      3.2431441      2.3454093
O      -17.2609030      3.8790446      1.1011343
C      -16.7119380      4.0277873     -0.2268782
X      -15.9082960      2.7908952     -0.6384355
X      -16.3148657      0.7345044     -1.6447127
X      -18.5224287     -0.2026070     -3.4417661
P      -13.8982369      4.3250114     -3.4169452
O      -13.4817723      3.2164164     -4.4613599
C      -14.3191131      2.8264324     -5.5688810
X      -14.7166108      4.0436141     -6.3666608
X      -14.8777759      6.3570910     -5.9425789
X      -13.7997704      8.3575784     -3.8967467
P      -11.5090470      4.4186994     -8.3925417
O      -11.2708001      5.9030148     -8.9715592
C      -10.9901247      6.0236015    -10.4017214
X      -10.5704616      7.4473160    -10.6995460
X      -11.1885256      9.5651830     -9.8742193
X      -12.2112776     10.5008791     -7.6219905
X      -12.3133240     12.6849633     -7.3970084
P       -6.7428458      7.0713900     -9.9526108
O       -6.3023205      8.0415668     -8.7745651
C       -6.8963585      7.9311707     -7.4866692
X       -6.5131822      6.6397267     -6.7854315
X       -5.4269314      4.6286046     -7.3514641
X       -3.9788404      4.3014964     -9.5140408
X       -2.0754229      3.2250732     -9.2217035
P       -3.8342990      8.3207668     -4.6250082
O       -3.9164868      7.8618562     -3.1064252
C       -3.9681970      8.7972809     -2.0369845
X       -4.1055240      8.1312705     -0.6608042
X       -4.8659619      6.0537154      0.1601757
X       -4.7230591      3.3402135     -1.1372064
P       -0.4748269      7.7932572      0.2506830
O       -0.2059206      6.6586069      1.3447062
C       -0.9376761      6.4868482      2.5482181
X       -0.3512858      5.4667969      3.5156588
X        0.9775353      3.5331434      3.3827777
X        2.7343674      2.7530015      1.6101917
X        4.3143079      1.4737454      2.3602060
P        1.4351704      8.0267862      5.6681300
O        1.6506435      7.4291483      7.1583076
C        1.5466508      8.1408275      8.3840047
X        1.8164285      7.1608518      9.5310177
X        1.8167340      4.8503718      9.8952504
X        2.5246066      3.3078136      7.9094983
X        2.6170453      0.9206596      8.5202386
P        5.6039458      7.9045144      9.7904020
O        6.3942385      6.8342969     10.6314312
C        7.5850578      7.1481385     11.2956495
X        8.6649945      7.5688879     10.2957347
X        9.0477761      9.5038439      9.0285020
X        8.0379167     12.3117062      9.4683762
P       11.6578148      6.5630620     12.2179909
O       12.6693380      5.6047365     11.3977667
C       12.9667769      4.3425117     11.8805552
X       14.0454294      3.6711276     11.0578776
X       16.3820499      3.3695335     11.2125850
X       18.0358606      3.5693175     13.7131402
P       13.2180186      0.0158201     11.7918446
O       14.1949296     -0.9345656     10.9531164
C       13.6855648     -2.1757717     10.4310578
X       14.7060693     -2.8647227      9.5671715
X       16.5625437     -2.2579185      8.3181892
X       18.3167103     -0.4814598      9.0803241
X       20.2610074     -0.6320164      7.6023175
   142
  Step:         1000 Total energy:    2020.7112798269350      Temperature:   0.56373619747097770     
O       -4.2936039     -4.7917232    -15.3873682
C       -3.1111947     -4.4499054    -14.6736249
X       -1.8714954     -4.7031297    -15.5491888
X       -1.3664586     -6.1711939    -17.3268884
X       -3.1827289     -7.0863766    -18.9820416
X       -2.0563462     -7.8362215    -21.0192794
P       -1.6309654     -1.3330221    -17.1628898
O       -0.5131780     -1.3650815    -18.3748047
C        0.8946858     -1.4053692    -18.0646083
X        1.3752281     -0.1832827    -17.2505139
X        0.5435160      1.9282381    -16.6525074
X       -2.0003600      2.4505546    -16.2579509
X       -2.3801305      4.8134115    -15.7182353
P        1.8681746     -1.9384878    -13.8278590
O        2.8544872     -1.0908914    -12.9022452
C        4.2812584     -1.2944072    -12.8791416
X        4.9571207     -0.8588214    -11.5534636
X        4.4347108      0.6253284     -9.8566252
X        1.9384730      1.1596847     -9.2354361
X        1.8939638      1.7054099     -6.8441634
P        4.6204065     -4.0940948     -9.6754872
O        5.1952092     -4.0130718     -8.1678082
C        6.4540850     -4.5780303     -7.7553716
X        6.7569789     -4.3086289     -6.3126910
X        6.3316809     -5.3782821     -4.2684620
X        6.0125039     -7.9548952     -3.8569303
X        6.9421472     -8.7076469     -1.7183667
P       10.6329770     -4.6755348     -6.5285164
O       11.2136144     -5.0081289     -5.0794069
C       12.3993703     -5.8540886     -5.0031847
X       12.8503689     -6.1178972     -3.5532591
X       12.2361150     -5.4609578     -1.4135269
X        9.7052060     -4.1192390     -0.3540672
P       11.7796938     -9.7665618     -3.1551903
O       11.9464702    -10.2535290     -1.6096525
C       11.1557218    -11.2148832     -0.9002300
X       11.6370776    -11.3517728      0.5355821
X       13.6011461    -10.7569198      1.7019534
X       14.9718677     -8.6486010      0.9710427
X       16.3661769     -7.7446399      2.7796344
P        9.1788232     -8.9065953      2.1681361
O        9.4586902     -8.6776172      3.7407863
C        9.1597294     -9.7083166      4.6612334
X        8.7834936     -9.1177658      6.0238421
X        8.8365564     -6.9998111      6.9875779
X        8.5816736     -4.7828404      5.6144372
X        8.1678893     -2.8945982      7.1256709
P        4.9952897     -9.3199177      5.7329550
O        4.2337190     -8.4803521      6.8868343
C        3.7727742     -9.1168614      8.0609076
X        2.9557321     -8.1827887      8.9311838
X        2.7712182     -5.8543080      9.2288875
X        3.2491550     -3.6580186      7.2114301
P       -0.3820497     -8.7308597      7.0869526
O       -1.3778378     -7.5783896      7.5440803
C       -2.1297874     -7.5673139      8.7841992
X       -2.6585029     -6.1703212      9.0464974
X       -2.3921630     -4.0179085      8.1044944
X       -1.1029023     -3.1404432      5.4812774
P       -6.2084768     -6.7572662      7.5398378
O       -6.8964651     -5.3608422      7.3304694
C       -8.3186815     -5.2986339      7.4840312
X       -8.9556159     -3.8854839      7.2128903
X       -8.5068768     -1.6464393      7.6628302
X       -5.9169873     -0.2952708      8.4271583
P       -9.6941430     -4.3643407      3.5419544
O      -11.1748424     -3.9466627      3.1023477
C      -11.5256280     -2.6178897      2.7352996
X      -12.8716941     -2.6037284      2.0129570
X      -13.8780043     -4.0039696      0.3920730
X      -13.2090798     -6.7516249     -0.6330788
P      -15.3512132     -2.1994842      4.9343061
O      -16.4059875     -1.0246446      4.7289929
C      -17.2205728     -0.8695879      3.5592720
X      -18.3076276      0.1838381      3.7961986
X      -19.6538240      0.8755177      5.5917405
X      -19.4307473      0.8420482      8.5817609
P      -16.4685375      3.2255521      2.3681471
O      -17.2771540      3.8896117      1.1775575
C      -16.7703170      4.0220122     -0.1686864
X      -15.9366269      2.7911403     -0.5625646
X      -16.3346892      0.7258340     -1.5805314
X      -18.5242654     -0.2170001     -3.4398889
P      -13.8485901      4.3491179     -3.3947112
O      -13.4535097      3.2165034     -4.4834451
C      -14.3309839      2.8552603     -5.5629103
X      -14.7184887      4.0435113     -6.3871868
X      -14.8883900      6.3487590     -5.9662400
X      -13.7914894      8.3466161     -3.8969036
P      -11.4507120      4.4153215     -8.4183106
O      -11.2075978      5.8478034     -8.9909238
C      -10.9780275      6.0868285    -10.3634077
X      -10.5854009      7.5071966    -10.6412042
X      -11.2409901      9.6596165     -9.9130913
X      -12.1993276     10.5043752     -7.6206425
X      -12.3113187     12.6903073     -7.3936728
P       -6.7625978      7.0475209     -9.9796380
O       -6.2666678      7.9948892     -8.8168567
C       -6.9581322      7.9055284     -7.5597606
X       -6.5104970      6.6388190     -6.7805526
X       -5.4317472      4.6395272     -7.3648871
X       -3.9668497      4.2600831     -9.5039505
X       -2.1417527      3.1807871     -9.1954728
P       -3.8454698      8.3180301     -4.5970193
O       -3.8828302      7.8145652     -3.0597626
C       -3.9080987      8.7802084     -2.0066314
X       -4.1555191      8.1429571     -0.6389227
X       -4.8361389      6.0498141      0.0890680
X       -4.7160975      3.3255822     -1.1355752
P       -0.4822550      7.7384014      0.2193771
O       -0.1797473      6.6017194      1.2938561
C       -0.9728845      6.5123728      2.4600490
X       -0.4144857      5.5207633      3.4667754
X        0.9221865      3.5784424      3.3959006
X        2.6931547      2.7579639      1.6199095
X        4.3020267      1.4843255      2.3662182
P        1.4529637      7.9904992      5.6596888
O        1.6381837      7.3511494      7.0999756
C        1.5355060      8.0847737      8.3607593
X        1.8308261      7.2168339      9.5835916
X        1.7995772      4.8926978      9.8852773
X        2.5277024      3.3024144      7.9103132
X        2.6048432      0.9087766      8.5591992
P        5.5566556      7.8847262      9.7820506
O        6.3428445      6.7894443     10.7054771
C        7.5840182      7.1334749     11.3147901
X        8.5867178      7.6047814     10.3039573
X        9.0792402      9.5190651      9.0556296
X        8.0240646     12.3082549      9.4747744
P       11.7198825      6.6135831     12.2828217
O       12.5908301      5.5758338     11.3990752
C       13.0190079      4.3611618     11.9442895
X       14.0484290      3.6912521     11.0469526
X       16.3645438      3.3780696     11.2303243
X       18.0230294      3.5879166     13.7122726
P       13.1997507      0.0113672     11.8033641
O       14.1632940     -0.9080011     10.9423313
C       13.6974849     -2.1613637     10.4748593
X       14.6737627     -2.9208444      9.5663248
X       16.5571337     -2.2937952      8.3007617
X       18.3073345     -0.4783062      9.0599214
X       20.2813237     -0.6210910      7.5816410
   142
  Step:         1025 Total energy:    2019.9688401222359      Temperature:   0.57905082413802689     
O       -4.2658418     -4.7198513    -15.4442102
C       -3.0922663     -4.4337191    -14.7139465
X       -1.8819946     -4.7214581    -15.5625080
X       -1.3600519     -6.1920492    -17.3066282
X       -3.1689477     -7.0618898    -18.9465418
X       -2.0579341     -7.7943625    -21.0105630
P       -1.5893203     -1.3130629    -17.1495048
O       -0.5079116     -1.3057118    -18.2511432
C        0.8528062     -1.3831558    -18.0336969
X        1.3798476     -0.1976565    -17.2451258
X        0.5226615      1.9251200    -16.7184820
X       -2.0054514      2.4118915    -16.2660666
X       -2.3657138      4.7844652    -15.7478307
P        1.8389651     -1.8995683    -13.8480912
O        2.8309467     -1.1341815    -12.8371824
C        4.2606292     -1.3206650    -12.8986262
X        4.9528020     -0.8538020    -11.6406383
X        4.4409024      0.5745584     -9.8782909
X        1.9492763      1.1728043     -9.2412810
X        1.9040807      1.6726740     -6.8212668
P        4.6422738     -4.1580130     -9.6604371
O        5.1921455     -4.0216914     -8.1822568
C        6.4411344     -4.5629994     -7.7811744
X        6.7992416     -4.3237240     -6.3065530
X        6.3499735     -5.3853187     -4.2201338
X        6.0166470     -7.9380878     -3.8475089
X        6.8922724     -8.7425604     -1.7182184
P       10.6738497     -4.6493739     -6.5372182
O       11.2066074     -5.0439791     -5.1082631
C       12.4088409     -5.7960206     -4.9923818
X       12.8355198     -6.1111576     -3.5790505
X       12.2430278     -5.4838973     -1.3973517
X        9.7178091     -4.1082132     -0.3391478
P       11.7466009     -9.7780730     -3.1566910
O       11.8875340    -10.2369149     -1.6386448
C       11.1127675    -11.2225690     -0.9530457
X       11.6282661    -11.3579584      0.5011144
X       13.6229724    -10.7932559      1.6028008
X       14.9563974     -8.6336626      0.9530634
X       16.3442557     -7.7628381      2.7735364
P        9.1989884     -8.8651810      2.1862984
O        9.5052024     -8.6900046      3.7345348
C        9.2091787     -9.7016545      4.6647930
X        8.7545374     -9.1336743      6.0280701
X        8.6837813     -7.0027737      7.0183277
X        8.6103761     -4.7785976      5.6332926
X        8.1664749     -2.8731832      7.0930092
P        4.9822368     -9.2967488      5.7231332
O        4.2177174     -8.4827229      6.8434743
C        3.7449607     -9.0879954      8.0560228
X        2.9439621     -8.1617262      8.9629211
X        2.7055139     -5.8350253      9.1688171
X        3.2535458     -3.6408881      7.2264631
P       -0.3479054     -8.6930181      7.1365138
O       -1.3700073     -7.5509528      7.5071321
C       -2.0996949     -7.5344538      8.7493426
X       -2.7477618     -6.1566177      8.9753196
X       -2.3384498     -4.0306910      8.1327237
X       -1.1114820     -3.1322853      5.4728620
P       -6.1681999     -6.7909353      7.5960395
O       -6.9565215     -5.3761402      7.3413770
C       -8.3760690     -5.2869241      7.5056572
X       -8.9859649     -3.9289800      7.2192254
X       -8.4221599     -1.7113529      7.6825103
X       -5.8849221     -0.2823736      8.4165888
P       -9.7149656     -4.3516182      3.5340236
O      -11.1980711     -3.8973666      3.0906082
C      -11.6000829     -2.5594574      2.7125965
X      -12.9160489     -2.6271505      1.9908240
X      -13.8708717     -4.0132897      0.3601258
X      -13.2012363     -6.7421960     -0.6714594
P      -15.3418963     -2.1822039      4.9519871
O      -16.4596699     -1.0325440      4.7294572
C      -17.2161127     -0.8448531      3.5396650
X      -18.3480265      0.1522229      3.7173700
X      -19.6024688      0.9191232      5.5761832
X      -19.3999704      0.8238191      8.5978841
P      -16.4556533      3.2144974      2.3887691
O      -17.2893418      3.9012451      1.1860006
C      -16.7896810      4.0151818     -0.1455129
X      -15.9659700      2.7986669     -0.5005153
X      -16.4250520      0.7457310     -1.5073749
X      -18.5184320     -0.2222519     -3.4329311
P      -13.8097243      4.3453075     -3.3809542
O      -13.4679244      3.2651852     -4.4728663
C      -14.2710538      2.8690910     -5.5685209
X      -14.6321218      4.1165568     -6.3982896
X      -14.9314967      6.4041546     -5.9616204
X      -13.7761193      8.3351737     -3.9021118
P      -11.3942213      4.3517791     -8.4203425
O      -11.1734408      5.8678005     -8.9735771
C      -10.9596024      6.1515940    -10.3540117
X      -10.5353667      7.5788603    -10.6221881
X      -11.2052584      9.7469125     -9.9270070
X      -12.1865255     10.5294962     -7.6180265
X      -12.3070028     12.6777288     -7.3888143
P       -6.8058216      7.0267146    -10.0389783
O       -6.3180012      7.9440142     -8.8199276
C       -6.9442514      7.8853741     -7.5594819
X       -6.5004629      6.6838567     -6.8025823
X       -5.4765187      4.6765850     -7.3292396
X       -3.9922672      4.2503634     -9.5043051
X       -2.1515189      3.1258114     -9.1666790
P       -3.8504430      8.3035788     -4.5583938
O       -3.8789744      7.8164069     -3.0606502
C       -3.9066464      8.7877857     -2.0224586
X       -4.1841791      8.1552442     -0.6636079
X       -4.8683122      6.0533803      0.1248982
X       -4.7069383      3.3014618     -1.1341563
P       -0.4401388      7.7075631      0.1627894
O       -0.1904981      6.5641622      1.2372760
C       -1.0007117      6.5206566      2.4149893
X       -0.4947731      5.5104807      3.4132222
X        0.8746083      3.6112948      3.3939917
X        2.6697606      2.7815795      1.6327568
X        4.2773558      1.4823615      2.3671881
P        1.4798855      7.9461788      5.6761346
O        1.6781156      7.3138073      7.1234091
C        1.5494703      8.0916621      8.3301305
X        1.8051989      7.2109269      9.5168977
X        1.8647690      4.8929976      9.8757446
X        2.5267779      3.2711512      7.9349643
X        2.6012434      0.9351193      8.5908962
P        5.5409567      7.8434008      9.7954400
O        6.2540974      6.8332878     10.7091970
C        7.5084053      7.1740896     11.3502647
X        8.5851726      7.5694905     10.3233606
X        9.0206076      9.5236115      9.0899198
X        8.0220407     12.3114516      9.4819641
P       11.7709055      6.6511237     12.3085002
O       12.5761799      5.6029055     11.4717181
C       13.0120378      4.3077586     12.0005513
X       14.0558378      3.6663430     11.0710975
X       16.3694451      3.4066485     11.2017571
X       18.0177079      3.5987312     13.7078410
P       13.1968574      0.0510499     11.7962656
O       14.1068693     -0.9679409     10.9211578
C       13.6809580     -2.2471858     10.5114003
X       14.6619615     -2.9096084      9.5523262
X       16.5719156     -2.3025372      8.3444370
X       18.3144960     -0.4966412      9.0089798
X       20.2861463     -0.6055396      7.5779076
   142
  Step:         1050 Total energy:    2020.1125890691278      Temperature:   0.59912303661666777     
O       -4.2870835     -4.6492366    -15.4977512
C       -3.0975930     -4.4413193    -14.7055550
X       -1.8472734     -4.7366751    -15.4955920
X       -1.2968890     -6.2194240    -17.2330159
X       -3.1505322     -7.0486362    -18.9323807
X       -2.0713046     -7.7626880    -20.9991641
P       -1.5975372     -1.2653478    -17.0839268
O       -0.4805451     -1.2535240    -18.2901740
C        0.9414247     -1.4021354    -18.0291613
X        1.4253998     -0.1933613    -17.2334416
X        0.5159809      1.9294040    -16.7777934
X       -2.0135830      2.3820186    -16.2850899
X       -2.3548838      4.7447430    -15.7833562
P        1.8149936     -1.8600451    -13.8497647
O        2.8096257     -1.1831803    -12.8398419
C        4.2265957     -1.3568065    -12.9657732
X        4.9068254     -0.9319901    -11.6838096
X        4.3883831      0.5804042     -9.9479298
X        1.9752242      1.1962881     -9.2121414
X        1.9095612      1.6340327     -6.8250552
P        4.6602673     -4.2072027     -9.6655884
O        5.2286699     -4.0046531     -8.1506145
C        6.4744747     -4.6126807     -7.7651558
X        6.8479773     -4.3258106     -6.3208895
X        6.4099200     -5.3648435     -4.2541120
X        6.0074475     -7.9288232     -3.8611781
X        6.8488522     -8.7675505     -1.7075468
P       10.6321328     -4.6064679     -6.5345734
O       11.2577336     -5.1092131     -5.1184121
C       12.4954742     -5.7988057     -4.9928200
X       12.8757930     -6.1340640     -3.5732780
X       12.2169588     -5.4480989     -1.4138976
X        9.7301573     -4.0940597     -0.3227880
P       11.6965091     -9.7864007     -3.1724037
O       11.8743221    -10.1990573     -1.6346507
C       11.0898103    -11.1834577     -0.9650381
X       11.6112114    -11.3534848      0.4432993
X       13.5771397    -10.7826578      1.5364682
X       14.9538743     -8.6124787      0.9274527
X       16.3282147     -7.7917378      2.7725177
P        9.2363618     -8.8324158      2.1792709
O        9.5314635     -8.6892126      3.7538067
C        9.2020456     -9.7013239      4.7296114
X        8.7430752     -9.1305124      6.0522969
X        8.6420897     -7.0071598      7.0305924
X        8.6444131     -4.7898463      5.6531647
X        8.1602139     -2.8451362      7.0620343
P        4.9431824     -9.2845057      5.6864671
O        4.2404494     -8.4532312      6.8707744
C        3.7781693     -9.1042321      8.0865688
X        2.9400501     -8.1642531      8.9217943
X        2.6743623     -5.8403978      9.1794034
X        3.2580655     -3.6138125      7.2357148
P       -0.3306927     -8.6686760      7.1757738
O       -1.4004733     -7.4921795      7.4896798
C       -2.1163080     -7.5221762      8.6900714
X       -2.7081979     -6.1498808      8.9495610
X       -2.3197433     -4.0056044      8.1711965
X       -1.1293044     -3.1235611      5.4595770
P       -6.1750084     -6.7765983      7.6139194
O       -7.0395036     -5.4777485      7.3455869
C       -8.4455685     -5.3597127      7.5469117
X       -9.0028814     -3.9951610      7.2679012
X       -8.3743959     -1.7380284      7.7428735
X       -5.8441986     -0.2632290      8.4085293
P       -9.7476450     -4.3189770      3.4801217
O      -11.2016628     -3.8780783      3.1094887
C      -11.6419581     -2.5540688      2.7207513
X      -12.9691442     -2.6081518      1.9822475
X      -13.8826331     -3.9456483      0.2713312
X      -13.1937668     -6.7364290     -0.7074207
P      -15.3485917     -2.1623331      4.9639283
O      -16.4622525     -1.0600994      4.7075045
C      -17.2571650     -0.9059445      3.5272091
X      -18.3285191      0.1595501      3.7404463
X      -19.5414957      0.9264822      5.6041802
X      -19.3739573      0.8037732      8.6055510
P      -16.4614195      3.2070107      2.3781912
O      -17.2585517      3.9157013      1.1879825
C      -16.7542942      4.0697342     -0.1236656
X      -15.9715044      2.8258295     -0.5103337
X      -16.4864237      0.7102536     -1.4367023
X      -18.5148778     -0.2266045     -3.4263361
P      -13.8251761      4.3466944     -3.3294166
O      -13.4128901      3.2474123     -4.4373346
C      -14.1954246      2.9433127     -5.5999019
X      -14.5809477      4.1704576     -6.4341019
X      -14.9527059      6.4265860     -5.9942402
X      -13.7623653      8.3270068     -3.9098196
P      -11.3562472      4.3360974     -8.4416461
O      -11.1429830      5.8369827     -8.9303267
C      -10.9763029      6.1704377    -10.3244625
X      -10.5378544      7.6192895    -10.6299329
X      -11.0750678      9.7712302     -9.8933660
X      -12.1741254     10.5288633     -7.6258561
X      -12.3223846     12.6874248     -7.3754129
P       -6.8448907      7.0132941    -10.0946348
O       -6.3644832      7.9446683     -8.8761554
C       -6.9082202      7.9609093     -7.5359770
X       -6.5113784      6.6766809     -6.7654722
X       -5.4769008      4.6511344     -7.3571918
X       -4.0117540      4.2403570     -9.4958862
X       -2.1617963      3.0800111     -9.1405235
P       -3.8391008      8.3100338     -4.5644347
O       -3.9158918      7.8082001     -3.0500473
C       -4.0169706      8.7965772     -2.0035330
X       -4.1465189      8.1174704     -0.6635019
X       -4.9117279      6.0286126      0.0562951
X       -4.7082736      3.2897409     -1.1278985
P       -0.4014690      7.6853046      0.0955032
O       -0.2251590      6.5575666      1.2015749
C       -1.0112546      6.5249733      2.4065655
X       -0.5258761      5.4935352      3.4250558
X        0.8191320      3.5738826      3.3705003
X        2.6691650      2.8115960      1.6542720
X        4.2351427      1.4788716      2.3600790
P        1.4999148      7.8764590      5.6688201
O        1.7282952      7.2921882      7.1305450
C        1.5368356      8.0881593      8.2817043
X        1.7872955      7.1925368      9.4757977
X        1.8798858      4.8710949      9.9082835
X        2.5269492      3.2731304      7.9519052
X        2.6037279      0.9338400      8.6328453
P        5.5110896      7.8646177      9.7767027
O        6.2663640      6.8157531     10.7656665
C        7.5175706      7.1580122     11.4197470
X        8.5393817      7.5430785     10.3721203
X        8.9543537      9.4785077      9.0850772
X        8.0146791     12.3210261      9.4909339
P       11.7713642      6.6905499     12.3184096
O       12.6787291      5.6046255     11.5425218
C       12.9890310      4.2446578     11.9991318
X       14.0564436      3.6729358     11.1271012
X       16.3838011      3.4675461     11.1632345
X       18.0104171      3.6077535     13.6990480
P       13.2091072      0.0513045     11.7773671
O       14.0603266     -0.9588134     10.9029902
C       13.6341743     -2.2886074     10.5300806
X       14.6139598     -2.9587767      9.5615138
X       16.5111305     -2.3311031      8.3179115
X       18.3138205     -0.5087162      8.9733344
X       20.3054617     -0.5893718      7.5656303
   142
  Step:         1075 Total energy:    2020.0719203998588      Temperature:   0.55132013419245351     
O       -4.2845795     -4.6065950    -15.5318199
C       -3.1286276     -4.4657564    -14.6644610
X       -1.8556723     -4.7466915    -15.4583667
X       -1.3400654     -6.2343843    -17.1737187
X       -3.1201198     -7.0274851    -18.8967304
X       -2.0797247     -7.7388496    -20.9972059
P       -1.5429092     -1.2212390    -17.0672607
O       -0.4820552     -1.2779592    -18.1812308
C        0.9450806     -1.3704016    -18.0078950
X        1.4772402     -0.1648440    -17.3024605
X        0.5482052      1.9076078    -16.7724233
X       -2.0170023      2.3425788    -16.3206049
X       -2.3531036      4.7141988    -15.8101635
P        1.7437575     -1.8595056    -13.8411238
O        2.8173825     -1.1495224    -12.8868515
C        4.2052350     -1.4629723    -12.9649962
X        4.8685103     -1.0128642    -11.6983260
X        4.4016088      0.5927984    -10.0234307
X        1.9980313      1.2230059     -9.2066876
X        1.9102315      1.6034572     -6.7979633
P        4.6915637     -4.2242341     -9.6409645
O        5.2937551     -4.0432617     -8.2101242
C        6.5272494     -4.6414768     -7.7816588
X        6.8193236     -4.3342405     -6.3217990
X        6.5046189     -5.3589219     -4.2572223
X        5.9970867     -7.9268161     -3.8734292
X        6.7994378     -8.7808369     -1.7097974
P       10.6140745     -4.5797982     -6.4873811
O       11.2679813     -5.1442712     -5.1569535
C       12.5311505     -5.8282011     -5.0531125
X       12.9430006     -6.1514653     -3.5869997
X       12.2300160     -5.4426027     -1.4346916
X        9.7333912     -4.0775739     -0.3043340
P       11.6552277     -9.7672316     -3.1852122
O       11.8638539    -10.1846663     -1.6594129
C       11.0361792    -11.1519101     -0.9958163
X       11.5680441    -11.3418420      0.4247783
X       13.5375527    -10.7250176      1.5388516
X       14.9427098     -8.5897796      0.8884962
X       16.3140529     -7.8140983      2.7828399
P        9.2935345     -8.8264610      2.1920006
O        9.5212809     -8.7002088      3.7562629
C        9.1663010     -9.7279716      4.7448114
X        8.7254769     -9.1378809      6.0658918
X        8.7240374     -7.0122500      7.0986452
X        8.6755471     -4.8027182      5.6680729
X        8.1503956     -2.8249158      7.0328371
P        4.9123611     -9.2576270      5.6651654
O        4.2892656     -8.4577377      6.8739536
C        3.7935094     -9.0945879      8.0608341
X        2.9766410     -8.1518021      8.9161221
X        2.7447562     -5.8429632      9.1517357
X        3.2630231     -3.5851367      7.2439652
P       -0.3630979     -8.6665439      7.1696754
O       -1.3643427     -7.4976870      7.4895703
C       -2.1499503     -7.5028629      8.6541496
X       -2.6579982     -6.0908695      8.9943372
X       -2.2879390     -3.9433775      8.1433764
X       -1.1491511     -3.1167808      5.4491902
P       -6.2218450     -6.7989544      7.6147581
O       -7.0649410     -5.4721333      7.3468988
C       -8.5096676     -5.4358902      7.5770102
X       -9.0233407     -4.0286208      7.3112579
X       -8.2987368     -1.8042027      7.8356319
X       -5.8094855     -0.2517371      8.3963924
P       -9.7456233     -4.2796425      3.4551644
O      -11.3008569     -3.8806717      3.1215876
C      -11.6876503     -2.5452456      2.7187105
X      -12.9927469     -2.5955633      1.9327906
X      -13.8092435     -3.9481186      0.2101218
X      -13.1924306     -6.7201021     -0.7355033
P      -15.3549244     -2.1563906      4.9686567
O      -16.4718912     -1.0575428      4.6993561
C      -17.3056106     -0.9760573      3.5293731
X      -18.2935068      0.1497843      3.8046896
X      -19.5486607      0.9339750      5.6194651
X      -19.3532594      0.7851454      8.6131858
P      -16.4537709      3.2044694      2.3639698
O      -17.2452269      3.9440026      1.1763821
C      -16.6940518      4.1090771     -0.1372100
X      -15.9679084      2.8244398     -0.5364432
X      -16.4764467      0.7179980     -1.4500005
X      -18.5218012     -0.2275395     -3.4192585
P      -13.8520401      4.3253567     -3.2920204
O      -13.3907078      3.2829492     -4.3963473
C      -14.1237269      2.9840823     -5.5947037
X      -14.5528962      4.1718684     -6.4249157
X      -14.9228129      6.4527978     -6.0714736
X      -13.7520609      8.3194521     -3.9142680
P      -11.3398338      4.3603375     -8.4637842
O      -11.0650170      5.8426200     -8.9462828
C      -11.0469296      6.1523603    -10.3417558
X      -10.5688707      7.5777920    -10.6125041
X      -10.9681238      9.7410218     -9.8665771
X      -12.1587229     10.5295968     -7.6293265
X      -12.3470726     12.7013077     -7.3467697
P       -6.8714751      7.0291688    -10.0869350
O       -6.3452744      7.9559608     -8.9120824
C       -6.8964306      7.9288674     -7.5744348
X       -6.4949730      6.6930249     -6.7697007
X       -5.4996730      4.6431454     -7.3651412
X       -3.9954589      4.2062671     -9.4777849
X       -2.2149016      3.0586900     -9.1228165
P       -3.8164204      8.3055123     -4.5915218
O       -3.9658425      7.8393983     -3.0823559
C       -4.0261953      8.7874448     -2.0075966
X       -4.1789113      8.1121424     -0.6735411
X       -4.8967493      6.0018858      0.0905124
X       -4.7218502      3.2733265     -1.1300002
P       -0.3870003      7.6551324      0.0388140
O       -0.1969535      6.5601438      1.2217530
C       -0.9929510      6.5314773      2.4177955
X       -0.5266209      5.4907363      3.4361570
X        0.7917022      3.5448019      3.4034342
X        2.6611785      2.8477765      1.6681061
X        4.2020925      1.4745872      2.3611330
P        1.5145486      7.8168263      5.6095096
O        1.7467947      7.2360793      7.0763898
C        1.4925510      7.9811267      8.2615008
X        1.7983063      7.1910052      9.5345148
X        1.8146702      4.8914497      9.9192867
X        2.5173228      3.2891601      7.9658721
X        2.6188009      0.9159346      8.6732647
P        5.5242958      7.8710718      9.7872984
O        6.2521388      6.8718000     10.7874769
C        7.4838249      7.1175326     11.4159716
X        8.5060429      7.5513174     10.4294590
X        8.8462953      9.4560971      9.1264045
X        8.0105397     12.3173972      9.5030526
P       11.7672284      6.6907540     12.3199697
O       12.7625729      5.6764714     11.6129739
C       12.9964613      4.3403618     12.0047389
X       14.0286645      3.6738210     11.1180215
X       16.3846338      3.5631759     11.2021412
X       18.0072917      3.6156222     13.6920105
P       13.2014231      0.0112742     11.7691328
O       14.0849876     -0.9361446     10.8402481
C       13.6232840     -2.2861958     10.5135415
X       14.5931819     -2.9820286      9.5825592
X       16.4382293     -2.2945073      8.3286883
X       18.2864685     -0.5318012      8.9532677
X       20.3340605     -0.5854138      7.5454788
   142
  Step:         1100 Total energy:    2019.5678889692745      Temperature:   0.56075075473961478     
O       -4.2675110     -4.5866704    -15.5198008
C       -3.1837217     -4.4349675    -14.6402235
X       -1.9182623     -4.7176475    -15.4206164
X       -1.2918068     -6.2157566    -17.1176966
X       -3.1004243     -7.0062836    -18.8733137
X       -2.0888943     -7.7177039    -20.9932907
P       -1.5102669     -1.2277368    -16.9979010
O       -0.4308930     -1.3146310    -18.2210194
C        1.0208048     -1.4050752    -18.0578918
X        1.4859854     -0.1596445    -17.3071211
X        0.5637881      1.9235831    -16.7460496
X       -1.9961803      2.3089050    -16.3614990
X       -2.3571430      4.6814373    -15.8270795
P        1.6640400     -1.8457130    -13.8453292
O        2.7917479     -1.1257597    -12.9907488
C        4.1410047     -1.5884778    -12.9100742
X        4.8870066     -1.0384890    -11.7036627
X        4.4214456      0.5601398    -10.0545354
X        2.0201369      1.2514468     -9.2205563
X        1.9137616      1.5753087     -6.7603887
P        4.7052336     -4.2490444     -9.6570706
O        5.3521432     -4.0340821     -8.2045807
C        6.5649680     -4.7036337     -7.7741322
X        6.8581873     -4.3538639     -6.3018122
X        6.4870812     -5.3785729     -4.2396964
X        5.9949470     -7.9318209     -3.8812545
X        6.7473806     -8.7728398     -1.7296183
P       10.6312602     -4.5645285     -6.4472346
O       11.2590932     -5.1908767     -5.0951777
C       12.5194435     -5.8815732     -5.0564772
X       12.9272795     -6.1234911     -3.6235815
X       12.2242651     -5.4308908     -1.5298028
X        9.7485326     -4.0696712     -0.2949453
P       11.6358848     -9.7128416     -3.2030245
O       11.8311907    -10.2035041     -1.7088594
C       11.0214825    -11.1426923     -0.9916140
X       11.5471574    -11.2998110      0.4275297
X       13.5113179    -10.6318129      1.5304930
X       14.9348621     -8.5649155      0.8656550
X       16.2850771     -7.8368271      2.7723432
P        9.3316076     -8.8113420      2.2124790
O        9.5226331     -8.7238294      3.7935986
C        9.0952494     -9.7340105      4.7307458
X        8.7183626     -9.1300275      6.0679879
X        8.8584278     -7.0220233      7.0751915
X        8.7019224     -4.8169792      5.6918241
X        8.1508516     -2.8253954      6.9947329
P        4.9262789     -9.2251878      5.6475690
O        4.2569978     -8.4285736      6.8712741
C        3.8183367     -9.1213735      8.0271255
X        3.0191782     -8.1699057      8.9319354
X        2.8396996     -5.8289418      9.1628107
X        3.2705774     -3.5506049      7.2484355
P       -0.3821658     -8.6993032      7.1396287
O       -1.3484661     -7.4527400      7.4996102
C       -2.0950283     -7.4271358      8.7523053
X       -2.7566281     -6.0712315      8.9948467
X       -2.2539631     -3.9030823      8.1774652
X       -1.1616247     -3.1063002      5.4295685
P       -6.2526406     -6.8096021      7.6215573
O       -7.0614326     -5.4697975      7.3844183
C       -8.4966079     -5.4258308      7.5020729
X       -9.0391959     -4.0353303      7.3404638
X       -8.2684200     -1.9071296      7.9246872
X       -5.7771019     -0.2460310      8.3782751
P       -9.7852493     -4.2254006      3.4790963
O      -11.2668901     -3.8819725      3.1149930
C      -11.6777442     -2.6042142      2.7523344
X      -12.9702377     -2.5712514      1.9262162
X      -13.8166444     -3.8995650      0.1766089
X      -13.1902955     -6.7064501     -0.7557539
P      -15.3435360     -2.1732846      4.9399736
O      -16.4512248     -1.0500300      4.7351221
C      -17.3091285     -0.9445958      3.5958233
X      -18.3500437      0.1357612      3.7867840
X      -19.5802274      0.9513097      5.6119282
X      -19.3320908      0.7697187      8.6228517
P      -16.4377430      3.2062528      2.3437715
O      -17.2295884      3.9338071      1.1795535
C      -16.7104609      4.0548531     -0.1548453
X      -15.9334570      2.8105651     -0.4986842
X      -16.4153722      0.7766866     -1.5203336
X      -18.5404304     -0.2240387     -3.4091867
P      -13.8754512      4.3380082     -3.2719090
O      -13.3660425      3.3223799     -4.3873518
C      -14.1448973      2.9461257     -5.5487450
X      -14.5053199      4.1694225     -6.4131127
X      -14.8139889      6.4824290     -6.0855233
X      -13.7418932      8.3117236     -3.9174252
P      -11.3299319      4.3795565     -8.4634626
O      -11.0484704      5.8712435     -8.9863358
C      -11.1342262      6.1587212    -10.3688549
X      -10.5836375      7.5465332    -10.6177230
X      -10.9829319      9.7071681     -9.8475884
X      -12.1431354     10.5542372     -7.6332786
X      -12.3781062     12.6914096     -7.3114598
P       -6.8512629      7.0449986    -10.0665716
O       -6.2957019      7.9677069     -8.8764542
C       -6.9030661      7.9082186     -7.5962232
X       -6.4918967      6.6925770     -6.8764097
X       -5.5060262      4.6279695     -7.3313695
X       -4.0230203      4.1868160     -9.4609407
X       -2.2258482      3.0152299     -9.1020848
P       -3.7871024      8.2930495     -4.6426238
O       -4.0128324      7.8596666     -3.1230997
C       -4.0075650      8.7765145     -2.0245324
X       -4.2031698      8.1285157     -0.6619994
X       -4.8614641      6.0032133      0.1406667
X       -4.7456560      3.2611151     -1.1285453
P       -0.4144507      7.5889516      0.0342442
O       -0.1314376      6.5985645      1.2393676
C       -0.9347618      6.5346175      2.3994119
X       -0.5375536      5.4734480      3.4137160
X        0.8124429      3.5655660      3.4280116
X        2.6429297      2.8743784      1.6820838
X        4.1757229      1.4774666      2.3661321
P        1.5409016      7.7635949      5.5613379
O        1.7270891      7.1705057      7.0567528
C        1.5114371      7.9770329      8.2309693
X        1.7594789      7.1421997      9.4870174
X        1.7858524      4.8621100      9.9851019
X        2.4987720      3.2784264      8.0089274
X        2.6321029      0.9334799      8.6941621
P        5.5470562      7.8937714      9.7911478
O        6.2026632      6.8299963     10.8079868
C        7.4362821      7.1030521     11.5107691
X        8.5050349      7.5051998     10.4345013
X        8.8055794      9.4526469      9.1230322
X        8.0071782     12.3133878      9.5168344
P       11.7533587      6.7057647     12.3629023
O       12.8020026      5.7372840     11.5815170
C       12.9491429      4.4070324     12.0140690
X       13.9958407      3.7309091     11.1092865
X       16.3587666      3.5719206     11.1895683
X       18.0181520      3.6253885     13.6875744
P       13.1979020     -0.0241831     11.7426394
O       14.0642877     -0.9661649     10.8027653
C       13.6189945     -2.2783991     10.5223122
X       14.6037887     -2.9541472      9.5951123
X       16.4489746     -2.3114151      8.2705440
X       18.2850560     -0.5510566      8.9221923
X       20.3161769     -0.5950507      7.5557652
   142
  Step:         1125 Total energy:    2021.9318823966471      Temperature:   0.54450789679940292     
O       -4.3505125     -4.5831540    -15.5025283
C       -3.2204750     -4.3884565    -14.6557901
X       -1.9162544     -4.6817817    -15.3814064
X       -1.3218183     -6.1526497    -17.1037544
X       -3.0671323     -6.9842890    -18.8558919
X       -2.0968076     -7.7040483    -20.9853424
P       -1.4520899     -1.2663484    -17.0097092
O       -0.4300534     -1.3602574    -18.1978715
C        0.9662972     -1.3367640    -18.1057756
X        1.4961056     -0.1928275    -17.2738228
X        0.6034279      1.9070650    -16.7778653
X       -1.9650633      2.2982587    -16.4013493
X       -2.3693032      4.6391618    -15.8368047
P        1.6222855     -1.8121686    -13.8598581
O        2.7675135     -1.1440458    -12.9782657
C        4.1094761     -1.6602833    -12.9276610
X        4.8718386     -1.0698535    -11.7074294
X        4.4300139      0.5301505    -10.0653941
X        2.0508713      1.2772832     -9.2017867
X        1.9269044      1.5401126     -6.7713058
P        4.7383972     -4.2702956     -9.6455591
O        5.4054745     -4.0344669     -8.1997764
C        6.5601784     -4.7082701     -7.7369662
X        6.9052837     -4.4039742     -6.2888796
X        6.4128202     -5.3634689     -4.1865385
X        5.9810269     -7.9325113     -3.9154219
X        6.7010400     -8.7713435     -1.7257039
P       10.6879129     -4.5709321     -6.3954580
O       11.2319562     -5.1977214     -5.0726398
C       12.4705112     -5.8859530     -5.0860646
X       12.8936745     -6.1507057     -3.6502010
X       12.2358445     -5.3795184     -1.5633646
X        9.7653153     -4.0623826     -0.2951326
P       11.6070950     -9.6683442     -3.2357946
O       11.8255092    -10.2022024     -1.7166073
C       10.9971499    -11.1144832     -0.9874043
X       11.5290513    -11.2691955      0.4137519
X       13.4929927    -10.6221090      1.5489796
X       14.9332426     -8.5290430      0.8419498
X       16.2632042     -7.8494319      2.7598335
P        9.3250175     -8.7743143      2.2267908
O        9.5509479     -8.7426106      3.8236446
C        9.0502621     -9.7348098      4.6685719
X        8.7276510     -9.1573205      6.0630436
X        8.9721811     -7.0504862      7.1002616
X        8.7377250     -4.8284357      5.6916589
X        8.1509699     -2.8328807      6.9675177
P        4.9548224     -9.1735403      5.6439785
O        4.1985407     -8.4419982      6.8383573
C        3.8166480     -9.1001158      8.0232653
X        3.0221428     -8.1643496      8.9164468
X        2.9055500     -5.8352143      9.1454746
X        3.2790938     -3.5228950      7.2616424
P       -0.3929025     -8.6767971      7.1423014
O       -1.3491227     -7.4896272      7.5711528
C       -2.1152474     -7.3742091      8.7821818
X       -2.7030866     -6.0374716      8.9575395
X       -2.3384015     -3.8883923      8.1213134
X       -1.1724060     -3.0943973      5.4168924
P       -6.2477930     -6.8091598      7.6270626
O       -7.0800810     -5.4656259      7.4084895
C       -8.4834359     -5.4628261      7.3988952
X       -9.0273834     -4.0273179      7.3445094
X       -8.2884660     -1.8940401      7.9434842
X       -5.7518210     -0.2512817      8.3593829
P       -9.7544747     -4.1863584      3.5629687
O      -11.2922770     -3.8874505      3.0977548
C      -11.6589737     -2.5592516      2.7328334
X      -12.9500181     -2.5768739      1.9221343
X      -13.8165452     -3.8973887      0.1882210
X      -13.1961134     -6.6837714     -0.7642291
P      -15.3278700     -2.2075374      4.9027182
O      -16.4132506     -1.0204358      4.7496628
C      -17.2852383     -0.8919664      3.6163970
X      -18.3975886      0.1568488      3.7904795
X      -19.6309508      0.9383018      5.6427836
X      -19.3073830      0.7602807      8.6251036
P      -16.4196164      3.1905532      2.3404093
O      -17.2640271      3.9016686      1.1835177
C      -16.7292312      4.0178368     -0.1409251
X      -15.8998288      2.7778778     -0.5065926
X      -16.3588206      0.7483336     -1.5833884
X      -18.5616639     -0.2140327     -3.4012410
P      -13.8699427      4.3854430     -3.2745572
O      -13.3951440      3.3339034     -4.3618345
C      -14.1541285      2.9688698     -5.4999470
X      -14.4788674      4.1256830     -6.3985954
X      -14.7245071      6.4422297     -6.1197652
X      -13.7271860      8.3108251     -3.9147139
P      -11.3084010      4.3881030     -8.4554285
O      -11.1418914      5.8564624     -9.0026621
C      -11.1092639      6.1531584    -10.3896951
X      -10.5953267      7.5807153    -10.6765883
X      -11.0441368      9.7638190     -9.8756414
X      -12.1304220     10.5611625     -7.6305568
X      -12.4042922     12.6965729     -7.2814455
P       -6.7862017      7.0435832    -10.0561132
O       -6.2704453      8.0039084     -8.9251134
C       -6.9146720      7.9611353     -7.6353670
X       -6.5070686      6.6935120     -6.8293320
X       -5.5147884      4.6101807     -7.3121261
X       -4.0448616      4.1609007     -9.4443712
X       -2.2203667      2.9757723     -9.0888336
P       -3.7803223      8.2609989     -4.6852344
O       -4.0160014      7.8521334     -3.1353899
C       -4.0373871      8.7872231     -2.0404378
X       -4.1713920      8.0854507     -0.6789686
X       -4.8896557      5.9972636      0.0494533
X       -4.7779489      3.2572627     -1.1180457
P       -0.4577045      7.5352313      0.0160389
O       -0.0836873      6.5851375      1.2595314
C       -0.9801298      6.5362639      2.3709077
X       -0.5439464      5.4958169      3.4011869
X        0.8110019      3.5752271      3.4504388
X        2.6464505      2.8715338      1.6869278
X        4.1505835      1.4906010      2.3743476
P        1.5849783      7.7184887      5.5624299
O        1.6856491      7.1371742      7.0062466
C        1.5245136      7.9454879      8.1710780
X        1.7817511      7.1110324      9.4220617
X        1.7652976      4.8535884     10.0078886
X        2.4703300      3.2746840      8.0578879
X        2.6456166      0.9479860      8.7072175
P        5.5423688      7.8704765      9.8258527
O        6.2013839      6.8422264     10.8250238
C        7.4415328      7.0738847     11.4766285
X        8.4385737      7.5036191     10.4433608
X        8.8278117      9.4199752      9.1844317
X        8.0017357     12.3097227      9.5293057
P       11.7404900      6.7272450     12.4032252
O       12.7162824      5.7833441     11.5907781
C       12.9277101      4.4149023     11.9546077
X       14.0116630      3.7626517     11.1260722
X       16.2869048      3.5221264     11.2330386
X       18.0315769      3.6358147     13.6776928
P       13.1803720      0.0085789     11.7204876
O       14.0450350     -0.9645986     10.7990474
C       13.6802845     -2.2874942     10.5089700
X       14.6323000     -2.9722799      9.5339053
X       16.4892240     -2.3461693      8.2219562
X       18.2684485     -0.5642023      8.9036059
X       20.2906604     -0.6099272      7.5646367
   142
  Step:         1150 Total energy:    2025.2704142063876      Temperature:   0.59885485102968006     
O       -4.4213430     -4.5868854    -15.4723599
C       -3.2616312     -4.3139133    -14.6490483
X       -1.9412725     -4.6557088    -15.3627767
X       -1.2705334     -6.1010674    -17.1113625
X       -3.0511324     -6.9601280    -18.8376712
X       -2.0960390     -7.6862706    -20.9762610
P       -1.4670585     -1.2997040    -17.0630987
O       -0.4084850     -1.3709273    -18.3040615
C        0.9898320     -1.4214116    -18.0893841
X        1.4832984     -0.1721683    -17.3236211
X        0.6448161      1.9472449    -16.7487080
X       -1.9249038      2.2890800    -16.4437819
X       -2.3918411      4.6132665    -15.8408527
P        1.6557015     -1.8029899    -13.8292981
O        2.7649701     -1.1916515    -12.8636289
C        4.1147436     -1.5855084    -12.9675821
X        4.8169141     -1.1216165    -11.7078146
X        4.4190222      0.4801788    -10.0677566
X        2.0799382      1.2959777     -9.1958841
X        1.9503521      1.5014750     -6.7809693
P        4.7874924     -4.2895210     -9.6004571
O        5.4241772     -4.0665117     -8.1709240
C        6.5876543     -4.7214438     -7.7245394
X        6.8699737     -4.4173666     -6.2744570
X        6.3596054     -5.3646000     -4.1685000
X        5.9763759     -7.9297020     -3.9439397
X        6.6555363     -8.7721677     -1.7267197
P       10.7141821     -4.5479676     -6.3906192
O       11.2467101     -5.2216742     -5.0440606
C       12.4790557     -5.9259656     -5.0846002
X       12.9205949     -6.1428028     -3.6361554
X       12.2636808     -5.3529437     -1.5153419
X        9.7761024     -4.0540190     -0.2979137
P       11.5525386     -9.6766543     -3.2283049
O       11.8420848    -10.1522379     -1.7600103
C       10.9990961    -11.0276925     -1.0073698
X       11.5300012    -11.2391051      0.4113387
X       13.5044618    -10.6148224      1.4733627
X       14.9105032     -8.5154333      0.8121319
X       16.2583264     -7.8458318      2.7635834
P        9.2884074     -8.7216394      2.2437464
O        9.5632673     -8.7497141      3.8029524
C        9.0496783     -9.7314166      4.6653360
X        8.7598482     -9.1546754      6.0600221
X        9.0077209     -7.0666903      7.0394974
X        8.7826202     -4.8550851      5.6767099
X        8.1496113     -2.8447958      6.9625324
P        4.9640983     -9.1295840      5.6272154
O        4.1921853     -8.4221093      6.8157309
C        3.7771002     -9.1088003      8.0044932
X        3.0276998     -8.1432222      8.8916898
X        2.8634736     -5.8237812      9.1251775
X        3.2919700     -3.4958129      7.2777806
P       -0.3833891     -8.6466428      7.2007966
O       -1.3867747     -7.4797722      7.5553215
C       -2.1026360     -7.4332209      8.8148205
X       -2.7191337     -6.0345478      8.9997563
X       -2.4492589     -3.8755587      8.0654488
X       -1.1767836     -3.0809710      5.3957508
P       -6.2048923     -6.8017925      7.6218653
O       -7.0692973     -5.4522186      7.4204986
C       -8.4769791     -5.4523515      7.4326023
X       -9.0489710     -3.9821988      7.3313404
X       -8.2611395     -1.8522917      7.8824323
X       -5.7373262     -0.2710225      8.3382917
P       -9.7304926     -4.1576735      3.6231011
O      -11.2036706     -3.8262929      3.1664012
C      -11.6210034     -2.5239848      2.6899244
X      -12.9423621     -2.5509140      1.9290986
X      -13.8186840     -3.8880694      0.2251018
X      -13.2042276     -6.6597732     -0.7710027
P      -15.3457418     -2.2240665      4.8741745
O      -16.3810234     -1.0149675      4.6834845
C      -17.2907788     -0.8860918      3.6056877
X      -18.3295977      0.2095964      3.8567071
X      -19.6886129      0.9039098      5.6525342
X      -19.2813505      0.7516232      8.6268005
P      -16.4359209      3.1495094      2.3573144
O      -17.2474605      3.8400686      1.1758519
C      -16.7186380      3.9741485     -0.1214759
X      -15.9176261      2.7487865     -0.5597005
X      -16.3386823      0.6826715     -1.6024480
X      -18.5780778     -0.1960828     -3.3902476
P      -13.8606469      4.4658359     -3.2701743
O      -13.3941293      3.3254175     -4.3322690
C      -14.1400285      2.9120641     -5.4877410
X      -14.4928959      4.0934314     -6.3768505
X      -14.7071913      6.4068047     -6.1072440
X      -13.7114634      8.3090392     -3.9104462
P      -11.2834099      4.3786807     -8.4358331
O      -11.2239512      5.9002353     -9.0412399
C      -10.9892934      6.1920935    -10.4362168
X      -10.5658896      7.6217570    -10.7038269
X      -11.1256432      9.8139460     -9.9553615
X      -12.1217598     10.5607491     -7.6176091
X      -12.4255520     12.7056263     -7.2580116
P       -6.7603313      7.0289106    -10.0807706
O       -6.2814162      8.0176404     -8.9172629
C       -6.8555769      7.9833816     -7.6177045
X       -6.5298557      6.7175358     -6.8153437
X       -5.5419563      4.6698103     -7.3224562
X       -4.0403275      4.1212954     -9.4131974
X       -2.2401089      2.9542573     -9.0844385
P       -3.7903976      8.2254042     -4.6777767
O       -3.9661133      7.8420314     -3.1536058
C       -4.0046634      8.7919833     -2.1087695
X       -4.1905597      8.0944018     -0.7561923
X       -4.9454298      6.0333908      0.0696317
X       -4.8196118      3.2418299     -1.1087086
P       -0.4466413      7.4964123     -0.0154166
O       -0.1708577      6.5779050      1.2417328
C       -1.0163231      6.5007389      2.3902280
X       -0.5492591      5.4891552      3.3966637
X        0.7946734      3.5917137      3.4215303
X        2.6266674      2.8816421      1.6847647
X        4.1624844      1.4904239      2.3926189
P        1.6319054      7.7151842      5.5378593
O        1.7091821      7.0627410      7.0151714
C        1.5284396      7.9002776      8.1668216
X        1.8249419      7.1518312      9.4373283
X        1.7188809      4.8793092     10.0365795
X        2.4383285      3.2957720      8.0760737
X        2.6619166      0.9275785      8.7273038
P        5.5041109      7.8582273      9.8579273
O        6.1741865      6.7865307     10.8618990
C        7.4513685      7.0751900     11.4897915
X        8.4957044      7.4996440     10.4729600
X        8.8754574      9.4350878      9.2359863
X        7.9927211     12.3090497      9.5437873
P       11.6886236      6.7694099     12.4339758
O       12.6394715      5.7783238     11.6080708
C       12.8862177      4.3753644     11.9814094
X       13.9640266      3.7367923     11.0780246
X       16.2816489      3.4545042     11.2161318
X       18.0549114      3.6499752     13.6807801
P       13.1485625      0.0672058     11.7011007
O       14.0772489     -0.9226744     10.7884801
C       13.7454762     -2.3048872     10.4885262
X       14.6498724     -3.0143834      9.4613250
X       16.5076204     -2.3953172      8.1573570
X       18.2284096     -0.5675683      8.9154015
X       20.2875099     -0.6222886      7.5521907
   142
  Step:         1175 Total energy:    2025.4406150670300      Temperature:   0.60656735051999899     
O       -4.4276725     -4.5948091    -15.4351914
C       -3.2699853     -4.3172693    -14.6483612
X       -2.0051967     -4.6152294    -15.3878355
X       -1.2916736     -6.0547029    -17.0723814
X       -3.0389962     -6.9391909    -18.8151400
X       -2.0884275     -7.6644432    -20.9586624
P       -1.4788389     -1.3001432    -17.1822489
O       -0.4240644     -1.3912575    -18.3172174
C        0.9901062     -1.4032281    -18.0914713
X        1.5283900     -0.2032871    -17.3128486
X        0.6912195      1.9095714    -16.7979019
X       -1.8882248      2.2761475    -16.4623006
X       -2.4146476      4.6045691    -15.8596482
P        1.6804318     -1.8196487    -13.8003344
O        2.7428774     -1.2036813    -12.8120619
C        4.1088569     -1.5399195    -12.9383810
X        4.8640738     -1.1071927    -11.7110918
X        4.4497531      0.4557706     -9.9961638
X        2.0948859      1.3146861     -9.2234371
X        1.9810356      1.4681143     -6.7618204
P        4.8172799     -4.3223267     -9.5808352
O        5.4171096     -4.0829490     -8.1117548
C        6.6340019     -4.7717376     -7.6946614
X        6.8922987     -4.3723579     -6.2514647
X        6.3186844     -5.3482355     -4.2054719
X        5.9834576     -7.9406873     -3.9456093
X        6.6030418     -8.7622616     -1.7452417
P       10.6855665     -4.5175440     -6.3960226
O       11.2856665     -5.2226436     -5.0922570
C       12.5299609     -5.9099183     -4.9966740
X       12.9683233     -6.1482919     -3.5871701
X       12.2940637     -5.3491659     -1.4765740
X        9.7832505     -4.0461210     -0.3010729
P       11.4995482     -9.6694522     -3.2299530
O       11.8546340    -10.1400621     -1.7340643
C       10.9400345    -10.9799738     -1.0278496
X       11.5198207    -11.1659773      0.3759555
X       13.5387365    -10.6579908      1.4399866
X       14.9013738     -8.4975593      0.7998199
X       16.2483490     -7.8425772      2.7464338
P        9.2430646     -8.6806599      2.2280596
O        9.5385531     -8.6839755      3.7997399
C        9.1149870     -9.7672858      4.6816147
X        8.7671069     -9.1751021      6.0469447
X        8.9909508     -7.0759900      7.0859637
X        8.8223818     -4.8529389      5.6497061
X        8.1502413     -2.8840481      6.9544987
P        4.9675094     -9.0946700      5.5897077
O        4.2536011     -8.3618201      6.8075024
C        3.7595665     -9.0941160      7.9687402
X        2.9972831     -8.1381975      8.8781192
X        2.8064772     -5.8067555      9.1270710
X        3.3098048     -3.4695242      7.2865087
P       -0.3741031     -8.6218715      7.2527522
O       -1.4305493     -7.4391181      7.5480196
C       -2.0582067     -7.3691590      8.8238812
X       -2.7798835     -6.0347214      9.0255823
X       -2.4627199     -3.9707243      8.0018190
X       -1.1849993     -3.0667000      5.3749615
P       -6.1761152     -6.7791724      7.6085536
O       -7.0534015     -5.4494198      7.4188653
C       -8.4617423     -5.3724048      7.5640572
X       -9.0269814     -3.9811583      7.3523659
X       -8.2938412     -1.7994488      7.8112336
X       -5.7226652     -0.2950215      8.3153973
P       -9.6944094     -4.1357095      3.6314463
O      -11.2041420     -3.7531049      3.2269575
C      -11.5786679     -2.4541108      2.7103135
X      -12.8712887     -2.5264079      1.9320588
X      -13.8450601     -3.8578401      0.2304145
X      -13.2168878     -6.6387380     -0.7773308
P      -15.3732156     -2.2467180      4.8449935
O      -16.3450607     -0.9980712      4.6737502
C      -17.2836339     -0.8743032      3.6077668
X      -18.3061848      0.2005532      3.8825706
X      -19.6447599      0.9017407      5.6653789
X      -19.2566237      0.7369631      8.6377571
P      -16.4459631      3.1129224      2.3864573
O      -17.2426909      3.7559109      1.1352991
C      -16.7258593      3.9346097     -0.1830706
X      -15.9051753      2.7378026     -0.5867216
X      -16.3478278      0.6528693     -1.5711733
X      -18.5977570     -0.1790109     -3.3845342
P      -13.8606756      4.4816735     -3.2962683
O      -13.3664038      3.4042055     -4.3155277
C      -14.0862772      2.8920332     -5.4437460
X      -14.4832380      4.0750953     -6.3521514
X      -14.7607879      6.3636877     -6.0174758
X      -13.6954454      8.3034544     -3.9097665
P      -11.2832417      4.4415746     -8.4311617
O      -11.2068344      5.8753366     -9.0737497
C      -10.9180210      6.2244467    -10.4548369
X      -10.4992302      7.6579288    -10.6839420
X      -11.1929464      9.7675157     -9.9514173
X      -12.1136400     10.5622974     -7.6197865
X      -12.4390015     12.6901327     -7.2423306
P       -6.7917752      7.0429405    -10.0991471
O       -6.2652304      7.9767570     -8.8853441
C       -6.8506834      8.0197569     -7.6126078
X       -6.5428166      6.7594232     -6.8534960
X       -5.5830354      4.6644493     -7.3026016
X       -4.0356233      4.0984758     -9.3893926
X       -2.2488651      2.9118885     -9.0756514
P       -3.7881449      8.2094502     -4.6820251
O       -3.9073996      7.7485121     -3.1511660
C       -3.9774855      8.7492856     -2.1343796
X       -4.2082976      8.1242791     -0.7796731
X       -4.9125203      6.0417953     -0.0243318
X       -4.8673576      3.2397693     -1.0940022
P       -0.4305042      7.4912318     -0.0649602
O       -0.2596610      6.5210482      1.2046825
C       -1.0749738      6.5435140      2.3946800
X       -0.6110837      5.4956036      3.4039807
X        0.7534132      3.5530227      3.4248246
X        2.6258318      2.8657599      1.6814070
X        4.1679308      1.4971792      2.3989604
P        1.6721543      7.6789328      5.5428866
O        1.7978553      7.1073604      7.0183253
C        1.6195247      7.9291192      8.1736090
X        1.7460232      7.1599996      9.4781349
X        1.7373108      4.8766688     10.0614241
X        2.4113836      3.2949090      8.1026538
X        2.6712892      0.9260692      8.7462641
P        5.4844894      7.8269213      9.9134773
O        6.2133599      6.7926707     10.8431877
C        7.4363558      7.0603809     11.5347101
X        8.4912456      7.5180007     10.4966167
X        8.9294316      9.4953665      9.2520508
X        7.9814258     12.3119502      9.5578788
P       11.6471896      6.7657703     12.4469854
O       12.6026702      5.7268818     11.6582466
C       12.8541128      4.3478509     11.9665412
X       13.9436184      3.7424195     11.0818627
X       16.2682309      3.4734148     11.3124425
X       18.0709071      3.6625174     13.6724413
P       13.1482827      0.0522914     11.6433334
O       14.0821974     -0.8897836     10.7853457
C       13.7607299     -2.2738205     10.4800047
X       14.6641608     -2.9545108      9.4460692
X       16.5067621     -2.4156517      8.1122945
X       18.2059602     -0.5801190      8.9166144
X       20.2648648     -0.6306965      7.5562333
   142
  Step:         1200 Total energy:    2021.4765199593826      Temperature:   0.59202418353748720     
O       -4.4470494     -4.6190790    -15.4250503
C       -3.2955384     -4.3049088    -14.6032283
X       -1.9971434     -4.5571723    -15.3845779
X       -1.2976277     -6.0699515    -17.0462391
X       -3.0395037     -6.9277012    -18.7991232
X       -2.0789894     -7.6398371    -20.9313378
P       -1.5372001     -1.2726060    -17.2650090
O       -0.3603802     -1.3945567    -18.3753686
C        1.0849790     -1.4488353    -18.0978614
X        1.5379852     -0.2514531    -17.2769982
X        0.7116468      1.8934336    -16.8407430
X       -1.8569894      2.2734581    -16.4617927
X       -2.4319869      4.5881407    -15.8893775
P        1.6494985     -1.8639099    -13.8008084
O        2.7407183     -1.1793671    -12.8204197
C        4.1546945     -1.5520340    -12.8565530
X        4.9389438     -1.0580208    -11.6473425
X        4.4850848      0.4994371     -9.9254897
X        2.1146049      1.3264812     -9.2242350
X        2.0119518      1.4408550     -6.7690441
P        4.8412149     -4.3410343     -9.5793767
O        5.3971702     -4.1354770     -8.1323709
C        6.6514143     -4.6772646     -7.6833398
X        6.8998538     -4.3739302     -6.2226214
X        6.3382323     -5.3496629     -4.1874638
X        5.9766162     -7.9452165     -3.9756483
X        6.5688527     -8.7563375     -1.7400910
P       10.6766310     -4.5060472     -6.3900661
O       11.3114307     -5.1920053     -5.0962298
C       12.6046267     -5.8325186     -5.0007115
X       12.9642285     -6.1443495     -3.5532129
X       12.3150623     -5.3594052     -1.4131882
X        9.7884663     -4.0398816     -0.3038134
P       11.4782421     -9.6254527     -3.2200182
O       11.7788402    -10.1853555     -1.7791856
C       10.8995625    -10.9563613     -0.9858778
X       11.4754433    -11.1201688      0.3927712
X       13.5328103    -10.6511916      1.3736243
X       14.9004097     -8.4942426      0.8046213
X       16.2497346     -7.8368456      2.7239109
P        9.2024140     -8.6607425      2.2151206
O        9.4753981     -8.6335910      3.7694959
C        9.1871525     -9.7135568      4.7144054
X        8.7889531     -9.1573584      6.0373927
X        8.9106796     -7.0461875      7.0403496
X        8.8665497     -4.8631033      5.6277716
X        8.1488710     -2.9346537      6.9460435
P        4.9818817     -9.0592379      5.5683089
O        4.3145049     -8.3180608      6.8039742
C        3.7657798     -8.9972227      7.9381504
X        2.9799127     -8.0956934      8.8548370
X        2.7903464     -5.7828437      9.1022309
X        3.3268409     -3.4496279      7.2963443
P       -0.4189140     -8.6037614      7.2661756
O       -1.4007027     -7.4194044      7.6467158
C       -2.1238902     -7.3879898      8.8219395
X       -2.7260521     -6.0129212      9.0085262
X       -2.4883424     -3.9331525      7.9990649
X       -1.1933148     -3.0490998      5.3548007
P       -6.1973930     -6.7527655      7.5908425
O       -7.0192269     -5.4097193      7.3948343
C       -8.4446512     -5.3435403      7.6646003
X       -8.9772046     -3.9726061      7.4242690
X       -8.3215360     -1.7119766      7.8100928
X       -5.7046573     -0.3117920      8.2991385
P       -9.7030356     -4.1107776      3.6112938
O      -11.2325201     -3.7741466      3.1985536
C      -11.5686516     -2.4544134      2.7283117
X      -12.8484239     -2.4824416      1.9433408
X      -13.7262335     -3.8696678      0.2635547
X      -13.2312886     -6.6093336     -0.7812155
P      -15.3784528     -2.2816611      4.8120151
O      -16.3051914     -0.9855767      4.7204373
C      -17.2524209     -0.9094736      3.6181169
X      -18.3577401      0.1279250      3.8190054
X      -19.5527893      0.9505959      5.6659441
X      -19.2333021      0.7272793      8.6557611
P      -16.4528004      3.1104885      2.3638115
O      -17.2699555      3.6559748      1.1187859
C      -16.7107347      3.8963754     -0.1875217
X      -15.8778091      2.7075636     -0.6027894
X      -16.3584065      0.6290905     -1.5629277
X      -18.6133927     -0.1622807     -3.3839773
P      -13.8944051      4.4830157     -3.3079234
O      -13.2331567      3.4360911     -4.3539999
C      -13.9944615      2.9070193     -5.4546139
X      -14.4743366      4.0633934     -6.3097123
X      -14.8627156      6.3376611     -5.9491099
X      -13.6753623      8.3019562     -3.9043993
P      -11.2943623      4.4900277     -8.4306423
O      -11.1545411      5.9599448     -9.0621570
C      -10.8870985      6.1556783    -10.4645278
X      -10.5176255      7.6314711    -10.6879077
X      -11.1327089      9.7920610     -9.9415587
X      -12.1213974     10.5558819     -7.6138463
X      -12.4491478     12.6703362     -7.2344207
P       -6.8225625      7.0763828    -10.0871168
O       -6.2237661      7.9677647     -8.9447852
C       -6.8757730      7.9937053     -7.6528641
X       -6.5483214      6.7370082     -6.8234936
X       -5.5889606      4.6561247     -7.3430651
X       -4.0456070      4.0950107     -9.3786733
X       -2.2513565      2.8545799     -9.0626515
P       -3.7732636      8.1883836     -4.6919722
O       -3.8643868      7.7051126     -3.1931162
C       -3.9800622      8.7352483     -2.2008865
X       -4.1503369      8.1412264     -0.8081035
X       -4.8930155      6.0436723     -0.0145940
X       -4.9203315      3.2351753     -1.0770595
P       -0.4563587      7.4833404     -0.0789070
O       -0.3273215      6.4645522      1.1557887
C       -1.0399328      6.5518525      2.3962512
X       -0.6573983      5.4810697      3.4139206
X        0.7175246      3.5822527      3.3420291
X        2.6099022      2.8403852      1.6896324
X        4.1757389      1.5193596      2.4017107
P        1.7085445      7.6473632      5.5483559
O        1.8991604      7.1451885      7.0560704
C        1.6041535      7.9631292      8.2087598
X        1.7369790      7.1625981      9.5058399
X        1.7080539      4.8858547     10.0725704
X        2.4001796      3.2675670      8.1259412
X        2.6649619      0.9447613      8.7651015
P        5.4658256      7.8231029      9.9635784
O        6.2361442      6.7239051     10.8673524
C        7.4400999      7.1095068     11.4909358
X        8.4741700      7.5377638     10.5073567
X        8.9257563      9.5024841      9.2985192
X        7.9740770     12.3199682      9.5688591
P       11.6409496      6.6997454     12.4671870
O       12.6169453      5.7116042     11.6720947
C       12.7952751      4.3605497     11.9734047
X       13.8803974      3.7480847     11.1407116
X       16.2443597      3.5558467     11.2986957
X       18.0897265      3.6699932     13.6694400
P       13.1413033      0.0245841     11.5791686
O       14.1477862     -0.8668542     10.7219240
C       13.7293841     -2.2073203     10.4559022
X       14.6446287     -2.8797890      9.4717414
X       16.4584988     -2.3512933      8.1085770
X       18.2087448     -0.5925867      8.9146822
X       20.2188786     -0.6382091      7.5784503
   142
  Step:         1225 Total energy:    2021.5698324382624      Temperature:   0.62436281652868242     
O       -4.4357874     -4.6442609    -15.3969647
C       -3.2974807     -4.2141475    -14.6682544
X       -1.9771279     -4.5567597    -15.3539508
X       -1.3134967     -6.0489492    -17.0414890
X       -3.0589864     -6.9220317    -18.7818360
X       -2.0559198     -7.6168623    -20.9117508
P       -1.5441567     -1.2459676    -17.3624204
O       -0.3209561     -1.3702893    -18.3449061
C        1.0552817     -1.5090747    -18.0075724
X        1.5579976     -0.2882420    -17.2943321
X        0.7189987      1.8691220    -16.8380284
X       -1.8371412      2.2717595    -16.4666246
X       -2.4430678      4.5696295    -15.9163898
P        1.6397512     -1.8974316    -13.7777588
O        2.7626883     -1.2150036    -12.8784238
C        4.1810530     -1.5301150    -12.8137284
X        4.8947202     -1.0634301    -11.5593661
X        4.5578505      0.5881267     -9.9312669
X        2.1426623      1.3320031     -9.2068063
X        2.0360424      1.4184679     -6.7909475
P        4.8459362     -4.3385011     -9.6280207
O        5.3697861     -4.1502631     -8.0962839
C        6.6490849     -4.5953619     -7.6808639
X        6.9020505     -4.3451525     -6.2072939
X        6.3746502     -5.3733830     -4.1597718
X        5.9654035     -7.9558068     -4.0077735
X        6.5347315     -8.7475966     -1.7353437
P       10.7104162     -4.5256552     -6.3756280
O       11.3147574     -5.1465711     -5.0358429
C       12.6093808     -5.7658916     -4.9801065
X       12.9751979     -6.0683016     -3.5377332
X       12.2832091     -5.4342167     -1.3965649
X        9.7962938     -4.0401377     -0.3099765
P       11.4622786     -9.5810391     -3.2435915
O       11.7295901    -10.2170182     -1.7882594
C       10.7938446    -10.9529079     -0.9752848
X       11.3971752    -11.1583343      0.4122195
X       13.4950378    -10.6288162      1.3939336
X       14.8999853     -8.4972070      0.7943232
X       16.2641107     -7.8291977      2.7187106
P        9.1539587     -8.6449748      2.2053251
O        9.4195337     -8.5875515      3.7744368
C        9.2150299     -9.6910049      4.6621260
X        8.8169324     -9.1524478      6.0137085
X        8.8628999     -7.0282062      7.0884306
X        8.9028313     -4.8724615      5.5914557
X        8.1473983     -2.9754836      6.9540220
P        5.0187460     -9.0263596      5.5685420
O        4.3209609     -8.2569981      6.8018573
C        3.7953728     -8.9769816      7.8966579
X        2.9989337     -8.0525290      8.8130283
X        2.7955265     -5.7216558      9.1656180
X        3.3415739     -3.4287183      7.3007290
P       -0.4469771     -8.6249110      7.2490590
O       -1.3446011     -7.3907156      7.6982340
C       -2.1833903     -7.4061718      8.8683547
X       -2.7813878     -5.9811172      9.0044814
X       -2.4105884     -3.8648286      8.0305323
X       -1.2046552     -3.0312987      5.3297549
P       -6.2153340     -6.7233460      7.5701015
O       -6.9942371     -5.3707949      7.3646671
C       -8.4236976     -5.2821663      7.6996335
X       -8.9979593     -3.9114997      7.4487116
X       -8.2946437     -1.6906033      7.9006637
X       -5.6861009     -0.3211056      8.2904400
P       -9.7311182     -4.1174305      3.5945792
O      -11.1975041     -3.8079762      3.1314845
C      -11.5640462     -2.4865341      2.8084518
X      -12.8343457     -2.4339220      1.9671678
X      -13.6954997     -3.7774705      0.2216609
X      -13.2436819     -6.6001247     -0.7866280
P      -15.3733970     -2.3059377      4.7986125
O      -16.3377861     -1.0395050      4.6770874
C      -17.2699614     -0.9895648      3.6111207
X      -18.3216202      0.0831574      3.8243966
X      -19.4850132      0.9309342      5.6770334
X      -19.2069626      0.7209297      8.6725541
P      -16.4754117      3.0896739      2.3308467
O      -17.2955825      3.6258919      1.0790953
C      -16.6439746      3.8881726     -0.1721145
X      -15.8525360      2.6612386     -0.5994804
X      -16.3429489      0.5984613     -1.5866241
X      -18.6284590     -0.1459762     -3.3850492
P      -13.8980864      4.4632250     -3.3430198
O      -13.1780993      3.4724351     -4.3265686
C      -13.8448630      2.9680254     -5.4686174
X      -14.4485564      4.0707249     -6.2772502
X      -14.9380483      6.3356588     -5.8848962
X      -13.6585413      8.2968518     -3.9039324
P      -11.3261937      4.5291770     -8.4325288
O      -11.1233319      6.0098234     -8.9881195
C      -10.9869042      6.2162823    -10.3745008
X      -10.5426501      7.6237669    -10.7436867
X      -11.0383813      9.7468910     -9.8952698
X      -12.1330156     10.5198811     -7.6190687
X      -12.4601208     12.6669327     -7.2317368
P       -6.8148745      7.0828112    -10.0972295
O       -6.2495252      8.0060565     -8.9252616
C       -6.8571050      7.9788272     -7.6174000
X       -6.5619441      6.7049831     -6.8546346
X       -5.5789721      4.6092365     -7.3040087
X       -4.0294873      4.0764968     -9.3805957
X       -2.2811534      2.8202952     -9.0474208
P       -3.7383629      8.1515456     -4.7501357
O       -3.8536330      7.7335595     -3.2252071
C       -3.9462371      8.7226060     -2.2151385
X       -4.1446710      8.0848286     -0.8739649
X       -4.8843291      6.0341126      0.0347236
X       -4.9811922      3.2396780     -1.0577447
P       -0.4919688      7.4647255     -0.0512012
O       -0.3535396      6.4027545      1.1384892
C       -1.0230205      6.5866358      2.3818010
X       -0.6262942      5.5207018      3.4044453
X        0.6586171      3.5435055      3.3621076
X        2.5878556      2.8213281      1.6801592
X        4.2006830      1.5393371      2.4144801
P        1.7500417      7.6327638      5.5566254
O        1.9101530      7.1402557      7.0791899
C        1.5355796      7.9401261      8.2370071
X        1.7954444      7.1524526      9.5205128
X        1.6531290      4.8954476     10.0535376
X        2.3947182      3.2702421      8.1287298
X        2.6519371      0.9291868      8.7940985
P        5.4572784      7.8286362     10.0172705
O        6.2110314      6.7217479     10.8608866
C        7.4367730      7.0842990     11.5175994
X        8.4938547      7.5242018     10.5194271
X        8.9117925      9.4730141      9.2397237
X        7.9728477     12.3438227      9.5822148
P       11.6362029      6.6266246     12.5040295
O       12.6469342      5.7164559     11.6708105
C       12.7611541      4.3258271     12.0261046
X       13.8737687      3.7408345     11.1797032
X       16.2104701      3.6842497     11.3338501
X       18.1031603      3.6761698     13.6586212
P       13.1413816      0.0369964     11.5158650
O       14.1752652     -0.8368675     10.6921325
C       13.7143317     -2.1494089     10.4289423
X       14.6068763     -2.9190679      9.4707232
X       16.4027763     -2.2921794      8.0824001
X       18.1858167     -0.5786029      8.9434820
X       20.2136748     -0.6468460      7.5800256
   142
  Step:         1250 Total energy:    2017.7477583780537      Temperature:   0.57931166218166774     
O       -4.3988999     -4.6682774    -15.3897327
C       -3.2835363     -4.1522759    -14.6896616
X       -1.9702392     -4.4958388    -15.3867332
X       -1.3330428     -6.0339659    -17.0274236
X       -3.0894146     -6.9212269    -18.7803091
X       -2.0294323     -7.5894540    -20.8851559
P       -1.5525878     -1.2455203    -17.4018532
O       -0.3027325     -1.3715176    -18.4230867
C        1.0377541     -1.5427619    -17.9757054
X        1.6064063     -0.3231131    -17.2421029
X        0.7326403      1.8371707    -16.8403657
X       -1.8270671      2.2503973    -16.4830118
X       -2.4478998      4.5664349    -15.9304242
P        1.6653972     -1.9055260    -13.7757887
O        2.7680460     -1.2317461    -12.8243559
C        4.1664683     -1.5567637    -12.8398592
X        4.8327057     -1.0548547    -11.5499647
X        4.5845710      0.6486936     -9.9741664
X        2.1743320      1.3369565     -9.2279612
X        2.0480269      1.3985066     -6.7741962
P        4.8571921     -4.3361536     -9.6263017
O        5.3335584     -4.1443583     -8.1250770
C        6.6090196     -4.5733608     -7.6872170
X        6.9299975     -4.2697911     -6.2068996
X        6.4041647     -5.4137897     -4.2099032
X        5.9722479     -7.9770189     -4.0050821
X        6.4944846     -8.7360533     -1.7633280
P       10.7428022     -4.5508157     -6.3577962
O       11.3111763     -5.0634850     -4.9699591
C       12.5811036     -5.6955327     -4.9219943
X       13.0223526     -6.0854979     -3.5178137
X       12.3020223     -5.5023521     -1.3824083
X        9.7987870     -4.0422749     -0.3160771
P       11.4387516     -9.5698621     -3.2505213
O       11.6728978    -10.1750004     -1.7881491
C       10.7675999    -10.9593947     -0.9906271
X       11.3533510    -11.1673127      0.3936210
X       13.3876253    -10.5654920      1.4123722
X       14.8898731     -8.5183394      0.7927768
X       16.2786685     -7.8189831      2.7117360
P        9.1099566     -8.6222275      2.1848837
O        9.3823017     -8.5316487      3.7665007
C        9.1859423     -9.6289098      4.6211792
X        8.8253291     -9.1448039      6.0225522
X        8.9148607     -7.0470197      7.0084268
X        8.9256544     -4.8773123      5.5755471
X        8.1584765     -3.0066667      6.9594232
P        5.0564108     -8.9855681      5.5790920
O        4.3146191     -8.2152850      6.7484919
C        3.8261287     -8.9197370      7.8762730
X        3.0298553     -8.0188487      8.8156048
X        2.8573530     -5.7090469      9.1422859
X        3.3541650     -3.4094413      7.3052419
P       -0.4297493     -8.6335185      7.2551825
O       -1.3646488     -7.4174591      7.6875618
C       -2.2182655     -7.3177916      8.8798731
X       -2.8095151     -5.9443611      9.0285526
X       -2.2911688     -3.9078299      8.0139156
X       -1.2217376     -3.0190997      5.3052639
P       -6.2228748     -6.6887698      7.5467764
O       -7.0479749     -5.3220288      7.3401276
C       -8.4326369     -5.2396617      7.6248361
X       -9.0237391     -3.8663299      7.4330110
X       -8.3546912     -1.6646753      7.9803363
X       -5.6647168     -0.3203567      8.2843195
P       -9.7040844     -4.1675441      3.6081978
O      -11.2098706     -3.7984389      3.1013187
C      -11.6057456     -2.4531542      2.8528850
X      -12.8278858     -2.4529802      1.9277976
X      -13.6701473     -3.7595430      0.1840051
X      -13.2555848     -6.5806372     -0.7813523
P      -15.3542280     -2.3327757      4.8129358
O      -16.3904191     -1.1395018      4.6191961
C      -17.3171303     -1.0593838      3.5654276
X      -18.2747898      0.0807710      3.8725612
X      -19.4940904      0.8654580      5.7146135
X      -19.1782711      0.7192785      8.6869402
P      -16.5189256      3.0520946      2.3102462
O      -17.2814251      3.6499187      1.0437909
C      -16.6218407      3.8453096     -0.1933910
X      -15.8024393      2.6424242     -0.5984098
X      -16.3336724      0.5921785     -1.6088750
X      -18.6405675     -0.1303164     -3.3957164
P      -13.9042108      4.4676532     -3.3362644
O      -13.1141085      3.4578967     -4.2986961
C      -13.7625503      2.9295647     -5.4797040
X      -14.3880122      4.0901542     -6.2750770
X      -14.9584323      6.3414141     -5.8093751
X      -13.6438381      8.2931090     -3.9016541
P      -11.3458495      4.5653710     -8.4244274
O      -11.1652323      6.0521845     -8.9568498
C      -11.0798457      6.2468752    -10.3503507
X      -10.5659877      7.6400704    -10.6940975
X      -10.9773973      9.8118036     -9.8937267
X      -12.1502518     10.4986396     -7.6157480
X      -12.4621856     12.6260573     -7.2410748
P       -6.7796812      7.0847393    -10.1004216
O       -6.3225465      8.0362900     -8.8992247
C       -6.8815207      7.9274599     -7.5966502
X       -6.5304508      6.6782155     -6.8644439
X       -5.5438128      4.6114276     -7.3151084
X       -4.0166899      4.0590409     -9.3836165
X       -2.3086127      2.7939324     -9.0244641
P       -3.6831041      8.1233634     -4.8347708
O       -3.8705261      7.7174834     -3.2904219
C       -3.9252860      8.6722698     -2.2118064
X       -4.1667772      8.0703812     -0.8451532
X       -4.9717315      6.0424742     -0.0139326
X       -5.0525045      3.2389650     -1.0360209
P       -0.5237577      7.4414335     -0.0183152
O       -0.3515645      6.3693850      1.1434002
C       -0.9570988      6.5898789      2.4164109
X       -0.5490547      5.5093152      3.4054805
X        0.6783205      3.5347982      3.3691341
X        2.5637578      2.7989392      1.6858295
X        4.2166815      1.5662003      2.4261735
P        1.8028170      7.6405830      5.5828247
O        1.8415573      7.1051604      7.0711917
C        1.6045672      7.9234224      8.2117855
X        1.7389585      7.1095261      9.5008659
X        1.6502787      4.8377994     10.0774950
X        2.3993257      3.2686735      8.1160633
X        2.6256959      0.9131188      8.8287180
P        5.4738185      7.8758117     10.0411890
O        6.2027992      6.7482640     10.8670711
C        7.4783886      6.9946978     11.5371312
X        8.4929160      7.5396237     10.4992622
X        8.8013338      9.5019836      9.2749556
X        7.9798045     12.3536940      9.5942906
P       11.6328338      6.5860307     12.5468384
O       12.6059327      5.6742835     11.7355010
C       12.7633546      4.2744313     12.0579835
X       13.9068287      3.7879964     11.1776190
X       16.2191285      3.7578239     11.3251072
X       18.1116995      3.6829475     13.6585080
P       13.1323978      0.0896972     11.4782122
O       14.1253966     -0.8680642     10.6664770
C       13.7089211     -2.1978253     10.4241399
X       14.5854620     -2.9105417      9.4179311
X       16.3981944     -2.2817559      8.0829092
X       18.1508318     -0.5584259      8.9567059
X       20.2188494     -0.6561548      7.5743344
   142
  Step:         1275 Total energy:    2014.7323209034425      Temperature:   0.58733637142962059     
O       -4.3610537     -4.6766277    -15.3908884
C       -3.2444508     -4.0957252    -14.6718702
X       -1.9770574     -4.4247225    -15.4617575
X       -1.3888457     -6.0363609    -17.0357806
X       -3.1168925     -6.9154292    -18.7853662
X       -2.0024623     -7.5549230    -20.8603429
P       -1.5396484     -1.2562626    -17.4424906
O       -0.2811310     -1.3697367    -18.4158901
C        1.0673714     -1.5540245    -18.0178933
X        1.5622918     -0.3480682    -17.2185617
X        0.7558240      1.8084111    -16.8036204
X       -1.8183719      2.2313938    -16.5036471
X       -2.4369042      4.5511113    -15.9339493
P        1.7114223     -1.9108343    -13.7651377
O        2.7157595     -1.2228062    -12.7430302
C        4.0812872     -1.5610127    -12.8249862
X        4.8984269     -1.0535959    -11.6263532
X        4.5728450      0.6291870    -10.0466640
X        2.1959147      1.3533145     -9.2287642
X        2.0592673      1.3777504     -6.7658917
P        4.8599087     -4.3377993     -9.6176585
O        5.3350924     -4.0970848     -8.1076649
C        6.6527305     -4.5076746     -7.7096080
X        6.8888636     -4.2830797     -6.2391042
X        6.4375226     -5.4139103     -4.2542555
X        5.9783563     -7.9896180     -4.0311542
X        6.4690383     -8.7371679     -1.7593901
P       10.7389247     -4.5616419     -6.3314925
O       11.3833236     -4.9862284     -4.9106931
C       12.6264662     -5.6942212     -4.8935478
X       12.9971263     -6.1065596     -3.4583791
X       12.3030645     -5.4895879     -1.3157540
X        9.8017338     -4.0460214     -0.3301684
P       11.4059958     -9.5650508     -3.2458315
O       11.6314855    -10.0946755     -1.7642994
C       10.7925819    -11.0078263     -1.0651571
X       11.2930290    -11.1141233      0.3645234
X       13.2763406    -10.5370841      1.4602781
X       14.8896061     -8.5403811      0.8151966
X       16.2864074     -7.8153077      2.6903048
P        9.0694983     -8.5845484      2.1559634
O        9.3683195     -8.5250270      3.7199039
C        9.1412586     -9.6306604      4.5747211
X        8.8229780     -9.1197289      6.0062408
X        9.0491201     -7.0600708      7.0550244
X        8.9354021     -4.8661888      5.5586167
X        8.1714333     -3.0279533      6.9616597
P        5.0800786     -8.9596141      5.5564472
O        4.3359114     -8.1746509      6.7335074
C        3.8437165     -8.9114559      7.8704639
X        3.0734454     -8.0214782      8.8173847
X        2.8892564     -5.7218285      9.1542906
X        3.3666599     -3.3815268      7.3002168
P       -0.4172395     -8.6175115      7.2998928
O       -1.4455345     -7.4626442      7.6603506
C       -2.2121258     -7.3559436      8.8680297
X       -2.7179299     -5.9621093      9.0401243
X       -2.3182878     -3.8378732      8.0458955
X       -1.2381607     -3.0041464      5.2784109
P       -6.2398749     -6.6225439      7.5165493
O       -7.1048883     -5.2851921      7.3225264
C       -8.4806333     -5.2328268      7.5422288
X       -9.0558785     -3.7922875      7.4021606
X       -8.3423524     -1.6373996      7.9281659
X       -5.6536538     -0.3196551      8.2760640
P       -9.7004577     -4.2046351      3.6164903
O      -11.1610975     -3.7974925      3.1562123
C      -11.5636283     -2.4738065      2.7818208
X      -12.8563607     -2.4353311      1.9428253
X      -13.6661251     -3.7401999      0.1924890
X      -13.2642660     -6.5678008     -0.7806813
P      -15.3225783     -2.3705281      4.8197345
O      -16.4254224     -1.2020239      4.6932434
C      -17.3148085     -1.0464904      3.5638908
X      -18.3526635      0.0439296      3.8266064
X      -19.5130918      0.8330636      5.7214831
X      -19.1433033      0.7122124      8.7071830
P      -16.5252905      3.0261555      2.3030326
O      -17.2778288      3.6391786      1.0256509
C      -16.6124300      3.8450481     -0.2015881
X      -15.8022046      2.6301715     -0.6224228
X      -16.3241228      0.5793953     -1.6444582
X      -18.6507239     -0.1136895     -3.4077554
P      -13.8847011      4.4731752     -3.3350504
O      -13.1290779      3.4648571     -4.2808782
C      -13.7322093      2.9422132     -5.4413707
X      -14.3525293      4.0417816     -6.2396689
X      -14.9494334      6.2707884     -5.7966184
X      -13.6333693      8.2937776     -3.8944598
P      -11.3379055      4.5952352     -8.4184182
O      -11.2499925      6.0907537     -8.9632670
C      -11.0918062      6.3076396    -10.3843799
X      -10.5605776      7.7107343    -10.5983511
X      -11.0087894      9.8863242     -9.8881070
X      -12.1497056     10.4729273     -7.6155317
X      -12.4574702     12.5791024     -7.2537320
P       -6.7921262      7.0974264    -10.0903760
O       -6.3145670      8.0184474     -8.8918460
C       -6.9610390      7.9355000     -7.6079654
X       -6.5351206      6.6609989     -6.8164184
X       -5.5247553      4.5924077     -7.3348376
X       -4.0215091      4.0595500     -9.4104567
X       -2.3108671      2.7512978     -8.9982700
P       -3.6368268      8.0873311     -4.8733375
O       -3.8317972      7.6957636     -3.3376553
C       -3.9229704      8.6674375     -2.2745438
X       -4.1984527      8.0853295     -0.8581246
X       -5.0450582      6.0723948      0.0423431
X       -5.1244961      3.2342012     -1.0160622
P       -0.5343429      7.4149827     -0.0030792
O       -0.3342070      6.3582045      1.1608633
C       -0.9105342      6.5676194      2.4545862
X       -0.4906447      5.5143376      3.4690382
X        0.7049131      3.4919572      3.4278794
X        2.5658151      2.7774109      1.6878005
X        4.2142361      1.5932505      2.4355087
P        1.8431393      7.6425220      5.5858602
O        1.7916031      7.0360189      7.0818123
C        1.6010735      7.8770843      8.2023598
X        1.7278889      7.1040173      9.5015277
X        1.6609609      4.8215499     10.0406089
X        2.4086823      3.2341107      8.1125448
X        2.5977343      0.9249422      8.8522275
P        5.4719805      7.9287825     10.0596834
O        6.2158287      6.7695844     10.8824147
C        7.4686968      6.9886251     11.5081474
X        8.4967211      7.4519233     10.5122245
X        8.7608199      9.4359623      9.3045953
X        7.9835378     12.3702037      9.6046261
P       11.5728316      6.5889308     12.5941360
O       12.5524732      5.6188489     11.7733357
C       12.8383971      4.2605324     12.0600764
X       13.9409584      3.8046347     11.1402053
X       16.2721885      3.7834533     11.2592389
X       18.1218475      3.6928522     13.6624921
P       13.1144539      0.1362036     11.4594703
O       14.0380184     -0.8799375     10.6374146
C       13.7016243     -2.2708907     10.4562026
X       14.5600342     -2.9045933      9.3545679
X       16.4205143     -2.3108245      8.0618391
X       18.1592971     -0.5340879      8.9262715
X       20.1859609     -0.6637780      7.5967363
   142
  Step:         1300 Total energy:    2015.9914870858620      Temperature:   0.57899828148670285     
O       -4.3403412     -4.6468764    -15.3703660
C       -3.2246158     -4.0131861    -14.7297543
X       -1.9754738     -4.4228453    -15.4485340
X       -1.3905643     -6.0317590    -17.0569134
X       -3.1538426     -6.9150864    -18.7877455
X       -1.9660782     -7.5192942    -20.8465179
P       -1.5202937     -1.2450530    -17.4749762
O       -0.2801666     -1.3855724    -18.4537572
C        1.0873984     -1.5434517    -18.0368541
X        1.5664870     -0.3296939    -17.2396532
X        0.7651755      1.7942447    -16.7439075
X       -1.8207126      2.2276157    -16.5316310
X       -2.4081625      4.5065316    -15.9323025
P        1.7084235     -1.9382986    -13.7262595
O        2.7194775     -1.2051820    -12.7128197
C        4.0770283     -1.5630997    -12.8476434
X        4.9389812     -1.0647537    -11.7034870
X        4.5805618      0.5850144    -10.0761768
X        2.2124688      1.3713548     -9.2050789
X        2.0773824      1.3628787     -6.7828812
P        4.8386702     -4.3155769     -9.5966530
O        5.3536398     -4.0330866     -8.1308812
C        6.6776930     -4.4955676     -7.7338023
X        6.9388611     -4.2847342     -6.2540966
X        6.4092466     -5.3946293     -4.2757799
X        5.9889587     -7.9986519     -4.0641267
X        6.4433131     -8.7428405     -1.7416950
P       10.7411235     -4.5711352     -6.2863356
O       11.4334427     -4.9508713     -4.9289192
C       12.6163916     -5.7324786     -4.8495112
X       12.9955718     -6.0899463     -3.4152384
X       12.3412227     -5.4664934     -1.2547262
X        9.7976811     -4.0485963     -0.3383914
P       11.3754539     -9.5390264     -3.2467360
O       11.5857315    -10.0422991     -1.7411215
C       10.7806086    -11.0149120     -1.0881444
X       11.2917223    -11.0894248      0.3622230
X       13.2247648    -10.4867096      1.5155577
X       14.8774407     -8.5755527      0.8365021
X       16.2984214     -7.8148624      2.6698923
P        9.0248130     -8.5473054      2.1095873
O        9.3640138     -8.5419559      3.6735858
C        9.0928416     -9.6360878      4.5725943
X        8.8573189     -9.0654331      5.9655352
X        9.1989803     -7.0302253      7.0091169
X        8.9503520     -4.8794259      5.5653874
X        8.1778231     -3.0304645      6.9696132
P        5.0725659     -8.9255983      5.5152615
O        4.4047096     -8.1900404      6.7441000
C        3.8698710     -8.9217713      7.8692400
X        3.1039045     -7.9907078      8.8048456
X        2.9102705     -5.6868602      9.1418538
X        3.3765169     -3.3604466      7.2949881
P       -0.3992347     -8.6316638      7.3428111
O       -1.4619717     -7.4878699      7.6098251
C       -2.1226484     -7.3585813      8.8714891
X       -2.7158386     -5.9442117      8.9982411
X       -2.3129987     -3.8586960      7.9792178
X       -1.2679853     -2.9950688      5.2685553
P       -6.2416745     -6.5420437      7.4987451
O       -7.1160954     -5.2029020      7.3160322
C       -8.5292303     -5.1985429      7.5543123
X       -9.1087629     -3.7587299      7.3121021
X       -8.3187990     -1.6329350      7.7912454
X       -5.6416612     -0.3124465      8.2753468
P       -9.7056079     -4.2191626      3.6185823
O      -11.1913838     -3.8100860      3.1495539
C      -11.5096604     -2.4704288      2.7366286
X      -12.7951096     -2.4478664      1.9286233
X      -13.7660261     -3.7508917      0.2174915
X      -13.2683688     -6.5601095     -0.7865469
P      -15.3336416     -2.3898591      4.8372751
O      -16.4612105     -1.2462023      4.7823732
C      -17.3056320     -1.0154374      3.6153110
X      -18.4268977     -0.0155520      3.8172596
X      -19.5520532      0.8047472      5.7175707
X      -19.1088881      0.7031988      8.7132754
P      -16.5064982      2.9998725      2.2997780
O      -17.2722274      3.5951442      1.0420082
C      -16.6239106      3.8592162     -0.2007519
X      -15.8217141      2.6409181     -0.6693369
X      -16.3127041      0.5850000     -1.6768171
X      -18.6597944     -0.0962950     -3.4192751
P      -13.8719556      4.4935112     -3.3165984
O      -13.0832843      3.4523636     -4.2746836
C      -13.7409733      2.8688352     -5.4082504
X      -14.4009789      3.9874993     -6.2074503
X      -14.8740064      6.2197682     -5.7775518
X      -13.6235320      8.2885973     -3.8899656
P      -11.3263609      4.6276796     -8.4201998
O      -11.3372644      6.0887196     -8.9839128
C      -11.0567069      6.3806899    -10.3657671
X      -10.5236483      7.7694401    -10.6381346
X      -11.0306054      9.9526446     -9.9410866
X      -12.1485310     10.4330074     -7.5983269
X      -12.4608648     12.5692939     -7.2502671
P       -6.8400950      7.1066454    -10.0788484
O       -6.3034889      7.9687916     -8.8497023
C       -6.9148584      7.9210356     -7.5808309
X       -6.5957215      6.6347292     -6.8451226
X       -5.5450286      4.6267361     -7.3659673
X       -4.0043902      4.0506575     -9.4351633
X       -2.3204558      2.7160539     -8.9853595
P       -3.6097090      8.0419244     -4.8666569
O       -3.7400013      7.6765203     -3.3002967
C       -3.9803338      8.6432531     -2.2983443
X       -4.2118165      8.0162320     -0.9357770
X       -5.0137368      6.0612666      0.0093550
X       -5.1998399      3.2461314     -0.9906531
P       -0.5249634      7.3995695     -0.0079667
O       -0.3361920      6.3521270      1.2103482
C       -0.8855855      6.5580739      2.5089306
X       -0.4806240      5.4804393      3.4966712
X        0.7488705      3.4730766      3.4636651
X        2.5489028      2.7830791      1.6881140
X        4.2200066      1.5943158      2.4440004
P        1.8485454      7.6021306      5.6157341
O        1.8393048      7.0545568      7.1025119
C        1.5280018      7.8783512      8.2269336
X        1.7918758      7.1147486      9.5029616
X        1.6694847      4.8380463     10.0292717
X        2.4127346      3.2160204      8.1066460
X        2.5795946      0.9158407      8.8743630
P        5.4429381      7.9631926     10.0826314
O        6.1974746      6.7901202     10.8910691
C        7.4306678      6.9573908     11.5225829
X        8.4471036      7.4522883     10.5104126
X        8.7986791      9.4727064      9.3392529
X        7.9925546     12.3627603      9.6138988
P       11.5063265      6.5660046     12.6275458
O       12.5151107      5.6488383     11.7719659
C       12.9106141      4.3259517     12.0512437
X       14.0120936      3.8041336     11.1186419
X       16.3682470      3.7471534     11.2511398
X       18.1220661      3.6996819     13.6592947
P       13.0721951      0.1227366     11.4462874
O       13.9861269     -0.8404619     10.5749469
C       13.7122185     -2.2615444     10.4251113
X       14.5469888     -2.9348092      9.3371964
X       16.3862049     -2.2750522      8.0836538
X       18.1453070     -0.5171398      8.9044543
X       20.1803773     -0.6716714      7.6020934
   142
  Step:         1325 Total energy:    2018.2317343955531      Temperature:   0.61044390173126284     
O       -4.3808612     -4.5935464    -15.3663219
C       -3.2288433     -3.9987081    -14.7466763
X       -1.9393256     -4.4031198    -15.4141749
X       -1.4419519     -6.0299530    -17.0434950
X       -3.1732526     -6.9216861    -18.8025472
X       -1.9406537     -7.4789799    -20.8400303
P       -1.4925911     -1.2246257    -17.5052604
O       -0.2697520     -1.4036710    -18.5123745
C        1.1189791     -1.5150351    -18.0527934
X        1.6232782     -0.3225935    -17.2181138
X        0.7607047      1.7935937    -16.7071651
X       -1.8346976      2.1862501    -16.5356477
X       -2.3803556      4.5073267    -15.9517882
P        1.6590946     -1.9538792    -13.6799904
O        2.7699191     -1.2523333    -12.7963870
C        4.1633498     -1.5640147    -12.9428777
X        4.8935245     -1.0628082    -11.7101144
X        4.5806558      0.5626575    -10.0405544
X        2.2423743      1.3735013     -9.2212878
X        2.0993676      1.3468704     -6.7668389
P        4.7992133     -4.2489848     -9.5833772
O        5.4418017     -3.9792882     -8.1457814
C        6.7075012     -4.5251118     -7.7277102
X        6.9691609     -4.2863940     -6.2466297
X        6.3351239     -5.4313075     -4.3034360
X        6.0042171     -8.0055377     -4.0581510
X        6.4139619     -8.7418107     -1.7658307
P       10.7704443     -4.5641767     -6.2911829
O       11.3976841     -4.9422750     -4.8418179
C       12.6111380     -5.7277934     -4.8014204
X       13.0403155     -6.0721958     -3.4093339
X       12.3846136     -5.4134136     -1.2470318
X        9.7883493     -4.0503719     -0.3392975
P       11.3590089     -9.4853451     -3.2317352
O       11.5457851    -10.0408274     -1.7615302
C       10.7550598    -10.9601964     -1.0394704
X       11.2608869    -11.1063008      0.3923508
X       13.1984518    -10.4993401      1.5740929
X       14.8633470     -8.6046880      0.8319794
X       16.3154419     -7.8216453      2.6634918
P        8.9944145     -8.5347941      2.0675590
O        9.3193626     -8.4907079      3.6141206
C        9.1108898     -9.6128977      4.5126194
X        8.8704260     -9.1129062      5.9038824
X        9.3094605     -7.0556860      7.0139335
X        8.9615379     -4.8780177      5.5717655
X        8.1826286     -3.0275644      6.9807833
P        5.0763657     -8.8838233      5.4818169
O        4.4265157     -8.1913268      6.7671655
C        3.8991166     -8.8961949      7.8879190
X        3.0953612     -7.9681226      8.7934290
X        2.9404044     -5.6567290      9.1118061
X        3.3819597     -3.3393527      7.2842195
P       -0.3722078     -8.6929902      7.3561639
O       -1.3845138     -7.4784723      7.6180261
C       -2.1094501     -7.3160340      8.8285009
X       -2.7508226     -5.9337208      8.9783504
X       -2.3785754     -3.8692444      7.9786269
X       -1.2918837     -2.9866709      5.2521011
P       -6.2342750     -6.4659219      7.4916770
O       -7.1195268     -5.1433095      7.3490097
C       -8.5419797     -5.1281733      7.5501894
X       -9.0839722     -3.7604607      7.2995752
X       -8.3175887     -1.5804810      7.6542166
X       -5.6290885     -0.3002109      8.2780975
P       -9.7356420     -4.2349615      3.5749536
O      -11.1902186     -3.8211984      3.1136987
C      -11.4969617     -2.4927108      2.6889302
X      -12.7940707     -2.4729881      1.9250092
X      -13.7908082     -3.8005152      0.2492555
X      -13.2725863     -6.5448009     -0.7890965
P      -15.3692984     -2.3942928      4.8710592
O      -16.4777921     -1.2611092      4.7674199
C      -17.3351536     -1.1066509      3.6397222
X      -18.3605433     -0.0160176      3.9055891
X      -19.6095100      0.7366588      5.7433910
X      -19.0771285      0.6956874      8.7030524
P      -16.4930327      2.9522977      2.3173719
O      -17.2739339      3.5646435      1.0642120
C      -16.6740734      3.8493763     -0.2230541
X      -15.8466938      2.6652192     -0.6721497
X      -16.3139752      0.6371765     -1.7044724
X      -18.6663806     -0.0788853     -3.4307476
P      -13.8244398      4.4843534     -3.3193331
O      -13.0994649      3.4679441     -4.2601088
C      -13.7647929      2.7998306     -5.3326368
X      -14.3993239      3.9264312     -6.1876990
X      -14.8140839      6.1958870     -5.8011519
X      -13.6140134      8.2807172     -3.8816240
P      -11.3374791      4.6396963     -8.4062263
O      -11.3798649      6.1606080     -9.0294349
C      -10.9833984      6.3897931    -10.3998772
X      -10.5553610      7.8054216    -10.7117457
X      -11.0615773      9.9527743     -9.9248265
X      -12.1431375     10.4262701     -7.5908854
X      -12.4685658     12.5543645     -7.2326684
P       -6.8831753      7.1125537    -10.0602049
O       -6.2834602      7.9499436     -8.8299985
C       -6.9167657      7.9204502     -7.5525798
X       -6.5748116      6.6360161     -6.8298543
X       -5.6062821      4.6095850     -7.4387054
X       -3.9725603      4.0250113     -9.4433240
X       -2.3454717      2.6801990     -8.9928643
P       -3.5974047      7.9930255     -4.8390348
O       -3.6788364      7.5970305     -3.3174429
C       -4.0407561      8.5903999     -2.3717918
X       -4.1678309      8.0439922     -0.9438961
X       -5.0107864      6.0763061      0.0059425
X       -5.2783379      3.2425439     -0.9767625
P       -0.5090272      7.3918025      0.0081328
O       -0.3514861      6.3624081      1.2079737
C       -0.9060261      6.5264155      2.5082671
X       -0.5065911      5.4556207      3.5189557
X        0.7403982      3.4576653      3.4939707
X        2.5535984      2.7987047      1.7003815
X        4.2211568      1.5919072      2.4458225
P        1.8447815      7.5646751      5.6345502
O        1.9413706      7.1133084      7.1568141
C        1.5447722      7.9438642      8.2710498
X        1.7469359      7.1069884      9.5117020
X        1.7585987      4.8307554     10.0542003
X        2.4117186      3.2217065      8.1082915
X        2.5649165      0.8851948      8.8991176
P        5.4289042      7.9909647     10.1124654
O        6.0953896      6.7894898     10.8798493
C        7.3568985      6.9855094     11.5217137
X        8.4380481      7.4992068     10.5427681
X        8.8287046      9.5017452      9.3609381
X        8.0027040     12.3443678      9.6281814
P       11.4576923      6.5076769     12.6396953
O       12.5432814      5.7272943     11.7360092
C       12.9632477      4.3954540     12.0727004
X       14.0458544      3.8388995     11.1327687
X       16.4104555      3.6528629     11.1953651
X       18.1260450      3.7045415     13.6617425
P       13.0254906      0.0827427     11.4325989
O       13.9449849     -0.8295326     10.4783191
C       13.6478079     -2.2211664     10.3861714
X       14.5502248     -2.9007637      9.3821447
X       16.3538028     -2.2475428      8.0207929
X       18.1064786     -0.4973906      8.9048059
X       20.2020670     -0.6773976      7.5863350
   142
  Step:         1350 Total energy:    2015.8938089238404      Temperature:   0.55513886135888491     
O       -4.3666184     -4.5284446    -15.3634803
C       -3.2421425     -3.9898593    -14.6650094
X       -1.9766754     -4.3832880    -15.4383528
X       -1.5003675     -6.0484354    -17.0131497
X       -3.1730390     -6.9168089    -18.8147571
X       -1.9228891     -7.4530812    -20.8407834
P       -1.4432253     -1.2217584    -17.5398927
O       -0.1735151     -1.3730010    -18.4786099
C        1.1751078     -1.4946473    -18.0677597
X        1.5921215     -0.3459323    -17.2096568
X        0.7346966      1.8000424    -16.7425116
X       -1.8428683      2.1499970    -16.5462165
X       -2.3466886      4.4907985    -15.9460748
P        1.5955975     -1.9520604    -13.6935842
O        2.7780254     -1.3156906    -12.8460278
C        4.2209809     -1.5411135    -12.9663709
X        4.9433473     -1.0776439    -11.7200591
X        4.6112513      0.5407091    -10.0440764
X        2.2571475      1.3676483     -9.2218356
X        2.1216119      1.3302563     -6.7601800
P        4.7608338     -4.1781800     -9.5539067
O        5.5336336     -3.9559739     -8.1500908
C        6.7487632     -4.5383942     -7.7597778
X        6.9408425     -4.3148053     -6.2673525
X        6.2921730     -5.4121392     -4.2578467
X        6.0102111     -8.0138923     -4.0630176
X        6.3923573     -8.7385771     -1.7836565
P       10.8143415     -4.5454634     -6.2624433
O       11.3471450     -4.9778429     -4.8532765
C       12.6176411     -5.6813038     -4.8042590
X       13.0465696     -6.0293451     -3.3966935
X       12.3750462     -5.3577429     -1.2537375
X        9.7847825     -4.0560510     -0.3367181
P       11.3365441     -9.4259553     -3.2044699
O       11.5720233    -10.0472721     -1.7219632
C       10.7092429    -10.9483793     -0.9934216
X       11.2041109    -11.1016168      0.4332298
X       13.2049551    -10.5502296      1.5664286
X       14.8506443     -8.6274027      0.8381416
X       16.3166229     -7.8394436      2.6424664
P        8.9761989     -8.5355388      2.0161738
O        9.2351891     -8.4152633      3.5816821
C        9.1561304     -9.5672662      4.4316516
X        8.9150368     -9.1372432      5.8203921
X        9.2569535     -7.0816184      6.9237875
X        8.9786038     -4.8782218      5.5911439
X        8.1881447     -3.0276771      6.9846060
P        5.0929947     -8.8422718      5.4829336
O        4.4166233     -8.1465256      6.7719383
C        3.9224990     -8.8701284      7.8707501
X        3.1231301     -7.9901846      8.8134949
X        2.9140025     -5.6534052      9.1265966
X        3.3866422     -3.3128184      7.2697044
P       -0.3623903     -8.7423174      7.3553422
O       -1.2950148     -7.4622177      7.6562545
C       -2.1936550     -7.3564299      8.7620029
X       -2.7332714     -5.9260791      8.9569902
X       -2.4793699     -3.8163001      7.9743605
X       -1.3154857     -2.9736733      5.2327435
P       -6.2301387     -6.4250189      7.4700676
O       -7.0661162     -5.0945437      7.4077828
C       -8.5084875     -5.0779821      7.5795219
X       -9.0433428     -3.7144382      7.2672796
X       -8.2824629     -1.4790155      7.6088555
X       -5.6344201     -0.2943050      8.2781259
P       -9.7338045     -4.2606763      3.5207911
O      -11.1975915     -3.8265406      3.0713785
C      -11.5432251     -2.4879513      2.6828653
X      -12.8783000     -2.4607115      1.9808811
X      -13.8040996     -3.7710555      0.2363912
X      -13.2728678     -6.5476867     -0.7998266
P      -15.3711813     -2.4159110      4.9051354
O      -16.4481603     -1.2335836      4.7530691
C      -17.3544464     -1.1724073      3.6786332
X      -18.3433909     -0.0379142      3.9201726
X      -19.5919013      0.7122235      5.7513632
X      -19.0432188      0.6850611      8.6949285
P      -16.4835429      2.9065001      2.3184291
O      -17.3057814      3.5264284      1.0949512
C      -16.7293256      3.8435250     -0.1748106
X      -15.8898553      2.6932790     -0.6642412
X      -16.3003657      0.6441677     -1.7389571
X      -18.6758075     -0.0651624     -3.4443552
P      -13.7866386      4.4960873     -3.3094482
O      -13.0728498      3.4014505     -4.2672033
C      -13.7973307      2.8064087     -5.3369981
X      -14.3485591      3.9231947     -6.1655659
X      -14.7662241      6.1803435     -5.7943797
X      -13.6072231      8.2649129     -3.8749755
P      -11.3635302      4.7081655     -8.4156742
O      -11.3493080      6.1237550     -9.0796643
C      -11.0390085      6.3386366    -10.4520750
X      -10.5688202      7.7774689    -10.7518756
X      -11.0907679      9.9209353     -9.9350518
X      -12.1386835     10.4412195     -7.5848658
X      -12.4796550     12.5421560     -7.1971161
P       -6.8904659      7.1146426    -10.0356796
O       -6.3362572      7.9763117     -8.8459998
C       -6.8937804      7.9398453     -7.5141519
X       -6.5242569      6.6196980     -6.8210093
X       -5.6025969      4.5542697     -7.4681488
X       -3.9815179      4.0146925     -9.4561798
X       -2.3440902      2.6424881     -8.9966850
P       -3.5737244      7.9397085     -4.8515864
O       -3.6918729      7.5074299     -3.3135660
C       -3.9511104      8.5572885     -2.3534834
X       -4.1806337      8.0368088     -0.9413751
X       -4.9933966      6.0503525      0.0222747
X       -5.3595008      3.2402353     -0.9686187
P       -0.4736146      7.4034392      0.0154881
O       -0.3380707      6.3299883      1.2139703
C       -0.9769481      6.4948521      2.5040168
X       -0.5461704      5.4422591      3.5269614
X        0.6969850      3.4597092      3.4720926
X        2.5842404      2.8203714      1.7311321
X        4.2194552      1.5864490      2.4364700
P        1.8504825      7.5719810      5.6386894
O        1.9924279      7.1118500      7.1600962
C        1.5629752      7.9198341      8.2761604
X        1.7026560      7.1654876      9.5906715
X        1.7725501      4.8684185     10.0633355
X        2.4194309      3.1925264      8.1251565
X        2.5513809      0.8845138      8.9117598
P        5.3674788      8.0227333     10.1265572
O        6.1087899      6.8107278     10.8498343
C        7.3292942      7.0670985     11.5707123
X        8.3783185      7.4933014     10.6041586
X        8.8874880      9.4371011      9.3575139
X        8.0099825     12.3406661      9.6398495
P       11.4471373      6.4367079     12.6210644
O       12.6099862      5.7671605     11.7705087
C       13.0433830      4.4168365     12.0832020
X       14.0555781      3.8324696     11.1569315
X       16.3515817      3.5645213     11.2261953
X       18.1325393      3.7075081     13.6562389
P       13.0094756      0.0913572     11.4095584
O       13.8534371     -0.8203099     10.4430308
C       13.6079160     -2.2014815     10.3381541
X       14.5713354     -2.8767314      9.3827980
X       16.3547998     -2.2015396      8.0179780
X       18.1071648     -0.4912752      8.8771026
X       20.1911408     -0.6665992      7.5905522
   142
  Step:         1375 Total energy:    2014.2417958761871      Temperature:   0.58571834033264125     
O       -4.3663006     -4.4493519    -15.3303747
C       -3.2339929     -3.9493513    -14.6569047
X       -2.0074505     -4.3923131    -15.4260372
X       -1.4883841     -6.0354067    -16.9904643
X       -3.1801490     -6.9084864    -18.8177009
X       -1.8996753     -7.4338961    -20.8541524
P       -1.3933597     -1.2209053    -17.5431454
O       -0.1069682     -1.3616752    -18.5181772
C        1.2072641     -1.5550236    -18.0135753
X        1.6309353     -0.3427096    -17.1998413
X        0.7117424      1.7959740    -16.7718059
X       -1.8605012      2.1411128    -16.5610225
X       -2.3072575      4.4486706    -15.9377041
P        1.5779029     -1.9246715    -13.7566152
O        2.7469837     -1.3363114    -12.7980414
C        4.1697243     -1.5836523    -12.9399775
X        5.0027143     -1.0405782    -11.7878913
X        4.6218706      0.5238370    -10.0683588
X        2.2744756      1.3509398     -9.2047795
X        2.1485800      1.3089504     -6.7788607
P        4.7483637     -4.1297790     -9.5077599
O        5.5357293     -3.9034175     -8.1485190
C        6.7194843     -4.5788139     -7.7511629
X        7.0004139     -4.3579194     -6.2815095
X        6.3131626     -5.4121387     -4.3210237
X        6.0094366     -7.9943087     -4.0951955
X        6.3797050     -8.7342480     -1.7670514
P       10.7954455     -4.5061908     -6.2427224
O       11.3531492     -5.0579031     -4.8584240
C       12.6524358     -5.6350150     -4.8162751
X       13.0348876     -5.9828461     -3.3932796
X       12.4136313     -5.3511289     -1.2239187
X        9.7792335     -4.0550087     -0.3283700
P       11.3260082     -9.3996523     -3.1238059
O       11.5987523    -10.0421102     -1.7188407
C       10.7148060    -10.9107936     -1.0037087
X       11.2285864    -11.0867973      0.4154769
X       13.2381265    -10.5924328      1.5446791
X       14.8325848     -8.6531269      0.8481406
X       16.3055835     -7.8613383      2.6227559
P        8.9437903     -8.5072023      1.9630035
O        9.1601689     -8.3845473      3.5234550
C        9.1986341     -9.5624183      4.3150497
X        8.9395067     -9.1360441      5.7632687
X        9.1606121     -7.1144907      6.9525184
X        8.9966879     -4.8666092      5.5863781
X        8.1936047     -3.0291760      7.0022326
P        5.1087918     -8.7941149      5.5039439
O        4.4240812     -8.1067804      6.7507828
C        3.9452974     -8.8638327      7.8703420
X        3.1517644     -7.9659698      8.8144335
X        2.9167934     -5.6561097      9.0450532
X        3.3881764     -3.2961698      7.2663061
P       -0.3460548     -8.7414430      7.3856321
O       -1.2507199     -7.4618438      7.6414114
C       -2.2190469     -7.3461416      8.7095560
X       -2.7696236     -5.9157575      8.9030065
X       -2.4267280     -3.8374909      7.9145592
X       -1.3451411     -2.9593920      5.2230015
P       -6.2152972     -6.4129197      7.4524935
O       -7.0272814     -5.0286009      7.4563678
C       -8.4578932     -4.9874821      7.6217013
X       -9.0207039     -3.6531846      7.2066612
X       -8.3313605     -1.4074627      7.6179964
X       -5.6393058     -0.2915380      8.2726934
P       -9.7137465     -4.2909023      3.4766621
O      -11.1931218     -3.8070556      3.0395045
C      -11.6580909     -2.4722162      2.8059932
X      -12.9257933     -2.4876771      1.9576870
X      -13.8341125     -3.7757755      0.2106603
X      -13.2646309     -6.5453049     -0.8071166
P      -15.3669362     -2.4378559      4.9384884
O      -16.3889415     -1.2173744      4.7952752
C      -17.3025595     -1.1606376      3.7043748
X      -18.4199154     -0.1225111      3.8746396
X      -19.5367529      0.7980281      5.7248206
X      -19.0147257      0.6673899      8.6983729
P      -16.4726502      2.8613830      2.2996153
O      -17.3459320      3.5025086      1.1121330
C      -16.7785720      3.8519140     -0.1414101
X      -15.9100556      2.7067908     -0.6582495
X      -16.3332675      0.6785200     -1.7755719
X      -18.6850170     -0.0521069     -3.4524486
P      -13.7385785      4.4813370     -3.2932117
O      -13.0916203      3.3614467     -4.2139476
C      -13.7081504      2.8312065     -5.3785674
X      -14.3407125      3.9400839     -6.1986711
X      -14.8050549      6.2262735     -5.8109178
X      -13.5982589      8.2526522     -3.8682300
P      -11.3628289      4.7095300     -8.4416091
O      -11.3566996      6.1769307     -9.1395468
C      -11.1281264      6.3117632    -10.5410863
X      -10.6073905      7.7110071    -10.7766470
X      -11.1001200      9.8344301     -9.9551250
X      -12.1260100     10.4349723     -7.5941608
X      -12.4983334     12.5511874     -7.1516793
P       -6.8794479      7.0923954    -10.0239701
O       -6.3940012      8.0734620     -8.8434294
C       -6.8351886      7.9223675     -7.4918813
X       -6.5107315      6.6160849     -6.8352790
X       -5.5588773      4.5510267     -7.4264665
X       -3.9984455      3.9861264     -9.4694671
X       -2.3500984      2.6150720     -8.9976132
P       -3.5409104      7.8741287     -4.8514583
O       -3.7388213      7.5166958     -3.3136083
C       -3.8263753      8.5147037     -2.2956871
X       -4.1043538      7.9649445     -0.9360600
X       -5.0572172      6.0408041      0.0115587
X       -5.4289241      3.2336724     -0.9655085
P       -0.4438625      7.3937209      0.0565107
O       -0.3306665      6.3376004      1.2319308
C       -1.0175931      6.4872382      2.4843160
X       -0.5989287      5.4260497      3.4989913
X        0.6929759      3.4870964      3.4627385
X        2.6007462      2.8567560      1.7522234
X        4.2308423      1.5668042      2.4379255
P        1.8646270      7.6106753      5.6401502
O        1.9163395      7.0975889      7.1644177
C        1.5282003      7.9326341      8.2548881
X        1.7091286      7.1624728      9.5605404
X        1.7117277      4.8733865     10.0119942
X        2.4321703      3.1822599      8.1571412
X        2.5363127      0.8767120      8.9246020
P        5.3092070      8.0404769     10.1374580
O        6.1250146      6.8737585     10.8386441
C        7.3099592      7.1383395     11.6087122
X        8.3794611      7.5396968     10.6265919
X        8.8522942      9.4715096      9.4275624
X        8.0249141     12.3275575      9.6489898
P       11.4664756      6.3892394     12.6125083
O       12.6668544      5.7435252     11.7932263
C       13.0066193      4.3721020     12.1215183
X       14.0379089      3.7891864     11.1686951
X       16.3621607      3.4992680     11.2268971
X       18.1401482      3.7114378     13.6475821
P       12.9871376      0.1545480     11.4088682
O       13.8078772     -0.8159343     10.4079409
C       13.5897759     -2.2401441     10.3355122
X       14.5302627     -2.9083749      9.3366440
X       16.3528379     -2.2126649      8.0192204
X       18.1277093     -0.4699137      8.8452002
X       20.1758126     -0.6521635      7.5969610
   142
  Step:         1400 Total energy:    2012.3618024594584      Temperature:   0.55832356720369158     
O       -4.4436897     -4.3742015    -15.3193818
C       -3.2229522     -3.9072509    -14.6873539
X       -1.9495857     -4.3808042    -15.4006293
X       -1.5061774     -6.0178419    -16.9973066
X       -3.1671325     -6.9028404    -18.8297641
X       -1.8927992     -7.4171217    -20.8606170
P       -1.3415553     -1.2211397    -17.5490351
O       -0.1079010     -1.4360876    -18.4802053
C        1.2294984     -1.5622403    -17.9856266
X        1.7191216     -0.3250661    -17.2324616
X        0.7253272      1.7304878    -16.8085653
X       -1.8704612      2.1122963    -16.5569656
X       -2.2777914      4.4436167    -15.9476496
P        1.6187895     -1.8903109    -13.7760764
O        2.7216503     -1.3433892    -12.7674087
C        4.0851933     -1.6159372    -12.9629780
X        4.9360841     -1.0451398    -11.8046159
X        4.6291373      0.5737598    -10.1352586
X        2.3015501      1.3235127     -9.2209736
X        2.1740871      1.2849581     -6.7766747
P        4.7533306     -4.0759858     -9.4793271
O        5.5133184     -3.8470894     -8.1014387
C        6.7350877     -4.6004266     -7.8036552
X        6.9905936     -4.3653537     -6.3169802
X        6.3965335     -5.3924148     -4.3053627
X        6.0072000     -7.9947868     -4.0880060
X        6.3610729     -8.7181970     -1.7749182
P       10.7716058     -4.4711212     -6.2471033
O       11.3541522     -5.1166023     -4.8842774
C       12.6753926     -5.6099144     -4.7770365
X       13.0854078     -5.9835774     -3.3467247
X       12.4007084     -5.3336846     -1.2210549
X        9.7737075     -4.0543537     -0.3158156
P       11.3189373     -9.3679854     -3.0812083
O       11.6671794    -10.0290790     -1.6654708
C       10.7738231    -10.9367055     -1.0246525
X       11.2498122    -11.0854474      0.3937777
X       13.2404430    -10.6590336      1.5621464
X       14.8164276     -8.6739899      0.8349982
X       16.2980086     -7.8850091      2.6222246
P        8.8985297     -8.4548080      1.8738834
O        9.1652143     -8.3925201      3.4563844
C        9.1701759     -9.5346551      4.3069718
X        8.9144949     -9.1032750      5.7604702
X        9.0882400     -7.1282241      6.8994374
X        9.0079032     -4.8614506      5.5907293
X        8.2094630     -3.0364645      7.0199591
P        5.1258627     -8.7760721      5.5017402
O        4.4583478     -8.0783285      6.7676327
C        3.9874430     -8.8705580      7.8953322
X        3.1624597     -7.9535067      8.7681908
X        2.9309590     -5.6517269      9.0630056
X        3.3858624     -3.2795557      7.2601422
P       -0.3139793     -8.7057904      7.4440091
O       -1.2853445     -7.4360302      7.5786023
C       -2.1950474     -7.3618475      8.6863488
X       -2.7651045     -5.9858371      8.8707660
X       -2.3828659     -3.8331856      7.9669826
X       -1.3670812     -2.9374509      5.1972287
P       -6.2180212     -6.3923522      7.4408221
O       -7.0102340     -5.0064405      7.4690579
C       -8.4145264     -4.9268646      7.5766958
X       -8.9810898     -3.5670579      7.2318032
X       -8.3902947     -1.3477132      7.6030956
X       -5.6404120     -0.2882088      8.2698368
P       -9.7212769     -4.2790541      3.4446458
O      -11.1876801     -3.8455246      3.0036074
C      -11.6733015     -2.5140226      2.8320326
X      -12.9821137     -2.4894713      2.0071790
X      -13.8075631     -3.7629757      0.2376600
X      -13.2511151     -6.5441217     -0.8152914
P      -15.3659470     -2.4426342      4.9622284
O      -16.3998636     -1.2282265      4.8283956
C      -17.3178874     -1.1883391      3.7081558
X      -18.3840170     -0.1181827      3.8851640
X      -19.5033232      0.8065929      5.7288403
X      -18.9892448      0.6485995      8.7039382
P      -16.5083671      2.8002095      2.2750507
O      -17.3239149      3.5221103      1.0910305
C      -16.7616746      3.8926854     -0.1573579
X      -15.9250601      2.7262762     -0.6375657
X      -16.3315167      0.7220080     -1.7675542
X      -18.7008305     -0.0403635     -3.4642911
P      -13.7364489      4.4447999     -3.2355936
O      -13.1039109      3.3636363     -4.2281700
C      -13.6806675      2.8633216     -5.4520319
X      -14.3180502      4.0072573     -6.2483148
X      -14.8622082      6.2562874     -5.7943577
X      -13.5913897      8.2381028     -3.8625723
P      -11.3334865      4.7024407     -8.4848653
O      -11.4248612      6.1237277     -9.1499279
C      -11.1615771      6.2756169    -10.5457036
X      -10.6440602      7.6792104    -10.8278937
X      -11.0619323      9.8064900     -9.9499881
X      -12.1195190     10.4374515     -7.6053828
X      -12.5144836     12.5478876     -7.1193783
P       -6.8884173      7.0701970     -9.9843625
O       -6.4104375      8.0892957     -8.8630528
C       -6.8734483      7.9429426     -7.5273242
X       -6.4929455      6.6360950     -6.8343049
X       -5.5162823      4.5584422     -7.4151109
X       -3.9968008      3.9353146     -9.4750261
X       -2.3675759      2.5913927     -9.0080461
P       -3.5005691      7.8143328     -4.8337925
O       -3.7490756      7.4940417     -3.2969386
C       -3.7382994      8.5089030     -2.2815369
X       -3.9979859      7.9326351     -0.8912920
X       -5.0940962      6.0346007      0.0046294
X       -5.4868012      3.2180504     -0.9677516
P       -0.4362302      7.3872036      0.0922006
O       -0.3032068      6.3384182      1.2847459
C       -1.0580057      6.4893803      2.4752422
X       -0.6004459      5.4577223      3.5049028
X        0.7238555      3.5052629      3.5045472
X        2.6218528      2.8834860      1.7628873
X        4.2367668      1.5573705      2.4429542
P        1.8416445      7.6177757      5.6150448
O        1.7964112      7.1354345      7.1201757
C        1.4886310      7.9681980      8.2132745
X        1.6715702      7.1148683      9.4676845
X        1.6178586      4.8344204     10.0509735
X        2.4466851      3.1913324      8.1782498
X        2.5275880      0.8482862      8.9398792
P        5.2841684      8.0773642     10.1513440
O        6.0808675      6.9154008     10.8916077
C        7.2836660      7.1325574     11.6258780
X        8.4322420      7.5514447     10.6637254
X        8.8990800      9.4595170      9.3490945
X        8.0391850     12.3299513      9.6639268
P       11.4921118      6.3677631     12.6408156
O       12.6403027      5.6415801     11.7885516
C       12.9694253      4.3084756     12.1025374
X       14.0434819      3.7481097     11.1674649
X       16.3825389      3.5189227     11.2493495
X       18.1464191      3.7154651     13.6347700
P       12.9737536      0.1755904     11.3965746
O       13.7653357     -0.7922817     10.4071089
C       13.5986366     -2.2365226     10.3412503
X       14.4837539     -2.8887648      9.2835127
X       16.3458892     -2.2389202      8.0470750
X       18.1086146     -0.4409304      8.8492382
X       20.2053669     -0.6419479      7.5705704
   142
  Step:         1425 Total energy:    2014.3043493169446      Temperature:   0.51705401969132414     
O       -4.4291119     -4.2856032    -15.3147934
C       -3.2208565     -3.8566474    -14.6759183
X       -1.9846405     -4.3459326    -15.4248068
X       -1.4819967     -6.0214589    -17.0172231
X       -3.1423960     -6.8959557    -18.8449854
X       -1.8932622     -7.4079334    -20.8700756
P       -1.3258916     -1.2361077    -17.5247930
O       -0.0209897     -1.5305614    -18.4545701
C        1.3721909     -1.6133691    -18.0562469
X        1.7202471     -0.3362329    -17.2838021
X        0.7418054      1.7180755    -16.8172566
X       -1.8578205      2.0789294    -16.5471576
X       -2.2649499      4.4513927    -15.9621213
P        1.6299243     -1.8922720    -13.7672631
O        2.7203876     -1.2862569    -12.7859819
C        4.0602752     -1.6236414    -12.9601729
X        4.8636069     -1.0900124    -11.7787434
X        4.6650283      0.6327120    -10.2243640
X        2.3168634      1.2926453     -9.2430020
X        2.2037467      1.2636423     -6.7752094
P        4.7483335     -4.0279939     -9.4685347
O        5.5193683     -3.8381563     -8.1190276
C        6.7165554     -4.5455560     -7.7884749
X        6.9687162     -4.3543324     -6.3086480
X        6.4795341     -5.4432301     -4.3149326
X        5.9962488     -7.9915355     -4.0754014
X        6.3366280     -8.6992791     -1.7847756
P       10.7809398     -4.4578602     -6.2420234
O       11.3593486     -5.1159283     -4.9083562
C       12.6860603     -5.6423197     -4.7983548
X       13.1066238     -5.9666234     -3.3307976
X       12.4051625     -5.3241248     -1.1905047
X        9.7637702     -4.0472466     -0.2988387
P       11.3249189     -9.3306266     -3.0545242
O       11.7019568    -10.0009831     -1.6595805
C       10.8924372    -10.9882743     -1.0461721
X       11.2707536    -11.1249113      0.4191336
X       13.2274910    -10.6597001      1.5848061
X       14.8026099     -8.7032552      0.8209802
X       16.2850437     -7.9157499      2.6264115
P        8.8748195     -8.4350491      1.8178241
O        9.1653563     -8.3659537      3.3915393
C        9.1052938     -9.5118421      4.2563871
X        8.8486372     -9.0956142      5.7266113
X        9.1064504     -7.1183020      6.9548996
X        9.0074877     -4.8366299      5.5981745
X        8.2306898     -3.0409253      7.0362724
P        5.1092402     -8.7726359      5.4770201
O        4.5189806     -8.0930902      6.7697205
C        3.9722186     -8.8286454      7.8539285
X        3.2013050     -7.9332053      8.7927746
X        2.9517918     -5.6170693      9.0896404
X        3.3837318     -3.2664173      7.2508369
P       -0.2881759     -8.6661362      7.4826121
O       -1.2912464     -7.4499002      7.5570708
C       -2.2043495     -7.3764905      8.6424587
X       -2.6745944     -5.9759152      8.8862141
X       -2.3340722     -3.8760079      7.8939962
X       -1.3921681     -2.9158540      5.1758617
P       -6.2391400     -6.3760689      7.4345086
O       -6.9830593     -4.9559213      7.4197743
C       -8.4138759     -4.9150644      7.5692979
X       -9.0000766     -3.5035367      7.1911648
X       -8.3965846     -1.3072233      7.5889778
X       -5.6404248     -0.2836698      8.2656200
P       -9.7179519     -4.2350696      3.4410998
O      -11.2277896     -3.9046888      2.9715950
C      -11.6429407     -2.5428821      2.8304746
X      -12.9471573     -2.5277992      2.0539025
X      -13.8034568     -3.7803730      0.2839403
X      -13.2434657     -6.5394532     -0.8223707
P      -15.3753141     -2.4303596      4.9905662
O      -16.4617616     -1.2951811      4.8229224
C      -17.3595182     -1.2222642      3.7064605
X      -18.3132776     -0.0838685      3.9537812
X      -19.5052642      0.7605289      5.7719123
X      -18.9642617      0.6287077      8.7095344
P      -16.5386490      2.7649882      2.2344535
O      -17.3411684      3.5382149      1.0930269
C      -16.7080107      3.9163160     -0.1407989
X      -15.9151930      2.7240699     -0.6490703
X      -16.3926093      0.7287177     -1.7231182
X      -18.7130766     -0.0275536     -3.4763135
P      -13.7497140      4.3954885     -3.1992818
O      -13.1298543      3.4052989     -4.2918785
C      -13.7425579      2.9293298     -5.4839930
X      -14.3120100      4.0520431     -6.2724466
X      -14.9063828      6.2420429     -5.7957959
X      -13.5822746      8.2250092     -3.8570117
P      -11.3089344      4.6706242     -8.5011711
O      -11.4721358      6.0895725     -9.1992966
C      -11.1415658      6.2674111    -10.5770853
X      -10.6340412      7.6810594    -10.8326759
X      -11.0571012      9.8286456     -9.9447145
X      -12.1243429     10.4522393     -7.6205135
X      -12.5171092     12.5203811     -7.0977381
P       -6.9324892      7.0426114     -9.9757878
O       -6.4007292      8.0313531     -8.8488720
C       -6.9012145      7.9685545     -7.5171197
X       -6.4870535      6.6500326     -6.8517169
X       -5.5317898      4.6012866     -7.4686796
X       -4.0111231      3.9086250     -9.4707967
X       -2.3662865      2.5407476     -9.0220972
P       -3.4531594      7.7714292     -4.8081197
O       -3.6962919      7.4453974     -3.2524450
C       -3.6741213      8.4649759     -2.2521059
X       -4.0264513      7.9360159     -0.8737077
X       -4.9952218      5.9917537     -0.0069534
X       -5.5296161      3.2081255     -0.9698587
P       -0.3865433      7.3841041      0.1175214
O       -0.2716168      6.3430464      1.3277685
C       -1.0284644      6.4704133      2.5253734
X       -0.5819030      5.4572497      3.5526309
X        0.8064343      3.5687156      3.5070608
X        2.6478704      2.8960926      1.7857596
X        4.2284891      1.5655261      2.4565511
P        1.7742891      7.6264843      5.5415900
O        1.7509487      7.1066412      7.0542748
C        1.4084249      7.9104151      8.2029556
X        1.5927642      7.1273395      9.4812689
X        1.5869426      4.8601711     10.0045742
X        2.4531765      3.1752707      8.2012456
X        2.5279136      0.8378212      8.9502382
P        5.2899024      8.1164059     10.1664099
O        6.0618501      6.9510575     10.9812631
C        7.3203895      7.1382404     11.5937627
X        8.4196069      7.5597826     10.6431992
X        8.9162918      9.4560492      9.3730478
X        8.0567405     12.3280534      9.6778618
P       11.5153197      6.3704229     12.6837605
O       12.5517080      5.5557277     11.7713032
C       12.9810728      4.2563114     12.0717558
X       14.0330839      3.7233879     11.1353475
X       16.3755302      3.6070851     11.1968115
X       18.1565076      3.7171281     13.6308943
P       12.9548533      0.1336754     11.3810083
O       13.7790348     -0.7779970     10.3795365
C       13.5930578     -2.2041460     10.3563910
X       14.4626977     -2.8281226      9.2726936
X       16.3421058     -2.1872398      8.0393946
X       18.1084987     -0.4235090      8.8427057
X       20.2201514     -0.6263073      7.5544782
   142
  Step:         1450 Total energy:    2013.0331541157293      Temperature:   0.57061793226801838     
O       -4.4010303     -4.2013990    -15.3415682
C       -3.2173692     -3.8439624    -14.6809014
X       -2.0225590     -4.3251299    -15.4240740
X       -1.5031595     -5.9833077    -17.0092486
X       -3.1146005     -6.8761509    -18.8450069
X       -1.8954308     -7.4113546    -20.8974244
P       -1.2348532     -1.2838501    -17.5146469
O       -0.0216954     -1.5827511    -18.4599557
C        1.3572774     -1.5881796    -18.0965651
X        1.7704642     -0.3799558    -17.2828471
X        0.7285416      1.6690407    -16.8530682
X       -1.8397198      2.0915954    -16.5408257
X       -2.2549054      4.4207808    -15.9775164
P        1.5893092     -1.9130169    -13.7702709
O        2.6839474     -1.1865724    -12.8484262
C        4.0541401     -1.6668472    -12.8745544
X        4.9212219     -1.0621217    -11.7904918
X        4.6638450      0.6614563    -10.2396208
X        2.3114829      1.2661741     -9.2405491
X        2.2413702      1.2445680     -6.7963000
P        4.7092908     -4.0429114     -9.4886361
O        5.5275426     -3.7753799     -8.1091634
C        6.6741433     -4.5110354     -7.7359965
X        7.0233492     -4.2793085     -6.2780831
X        6.4963853     -5.4263490     -4.2774533
X        5.9762811     -7.9949885     -4.0941099
X        6.3216859     -8.6957331     -1.7594807
P       10.8135957     -4.4554471     -6.2452036
O       11.3785982     -5.0670875     -4.8718550
C       12.6780966     -5.6688389     -4.7949251
X       13.0599251     -5.9437305     -3.3661804
X       12.3763684     -5.3002324     -1.2420072
X        9.7603623     -4.0383626     -0.2781961
P       11.3480264     -9.2957732     -3.0502771
O       11.6895349     -9.9958939     -1.6625748
C       10.9119993    -11.0403238     -1.0768626
X       11.3012012    -11.1554553      0.4128113
X       13.2097415    -10.6205697      1.6747024
X       14.8020287     -8.7258323      0.8225591
X       16.2623952     -7.9517664      2.6203778
P        8.9093216     -8.4582671      1.7899536
O        9.1177182     -8.3008237      3.3610579
C        9.0182761     -9.4509355      4.2139825
X        8.8433644     -9.0428723      5.6426899
X        9.1685157     -7.0794673      6.8797401
X        9.0120999     -4.8435832      5.6091314
X        8.2485973     -3.0161220      7.0662855
P        5.0715469     -8.7803461      5.4392575
O        4.5108130     -8.0652574      6.7781281
C        3.9703924     -8.7983476      7.8614760
X        3.2320869     -7.8880025      8.8436295
X        3.0126066     -5.5555032      9.1011379
X        3.3716973     -3.2576963      7.2433041
P       -0.2478150     -8.6741961      7.4730514
O       -1.2396417     -7.4348356      7.5785290
C       -2.1891479     -7.3990450      8.6559548
X       -2.6928567     -5.9767317      8.9013324
X       -2.2809946     -3.8753976      7.9090320
X       -1.4111076     -2.8920316      5.1461366
P       -6.2420465     -6.3316271      7.4288950
O       -7.0247541     -4.9368103      7.3187584
C       -8.4295487     -4.8650270      7.5214104
X       -9.0328086     -3.4941387      7.1449420
X       -8.3923973     -1.2990220      7.5467679
X       -5.6437440     -0.2759726      8.2583494
P       -9.7098093     -4.2045930      3.4520045
O      -11.1849872     -3.9039956      3.0395112
C      -11.6324341     -2.5846871      2.8507834
X      -12.9036144     -2.5575712      2.0474652
X      -13.8376694     -3.8225805      0.3093844
X      -13.2385253     -6.5298106     -0.8320065
P      -15.3687838     -2.4451184      5.0255374
O      -16.5143049     -1.3403107      4.8504303
C      -17.3474797     -1.2087264      3.7099429
X      -18.3785014     -0.1134185      3.9225455
X      -19.5519789      0.7626817      5.7870800
X      -18.9361186      0.6019708      8.7292847
P      -16.5205136      2.7721397      2.1940962
O      -17.3714240      3.5339780      1.0890000
C      -16.6943941      3.9148442     -0.1193038
X      -15.9119629      2.6816766     -0.6182419
X      -16.4465325      0.6615810     -1.6714575
X      -18.7279830     -0.0177679     -3.4944095
P      -13.7655836      4.3852256     -3.2188686
O      -13.1435453      3.4073957     -4.3111157
C      -13.8172733      2.9119905     -5.4783714
X      -14.4005571      4.0745007     -6.2922293
X      -14.9038478      6.3209522     -5.8537900
X      -13.5734118      8.2185578     -3.8464934
P      -11.3082592      4.6489077     -8.5127065
O      -11.4463120      6.0692834     -9.2635323
C      -11.1283892      6.3152102    -10.6252483
X      -10.6028422      7.7180094    -10.7958427
X      -11.0885474      9.8734416     -9.9771667
X      -12.1355560     10.4313738     -7.6316093
X      -12.5167027     12.5140599     -7.0862124
P       -6.9801705      7.0028025     -9.9865047
O       -6.4095283      7.9948998     -8.8672677
C       -6.8267498      7.9785869     -7.4968337
X       -6.5164037      6.6639588     -6.8068971
X       -5.6209939      4.5971677     -7.4670893
X       -4.0124045      3.8846282     -9.4855227
X       -2.3777623      2.4931867     -9.0340921
P       -3.4358486      7.7449521     -4.7735867
O       -3.6054823      7.3986283     -3.2307897
C       -3.7294785      8.4558195     -2.2846171
X       -3.9756597      7.9240582     -0.8718891
X       -4.9868518      6.0106556      0.0274966
X       -5.5597944      3.1946923     -0.9673951
P       -0.3250900      7.3814673      0.1544404
O       -0.2244877      6.3726023      1.3647535
C       -1.0296080      6.4746991      2.5427883
X       -0.6075941      5.4318789      3.5622968
X        0.8417535      3.5635504      3.6036538
X        2.6664001      2.9135923      1.7932286
X        4.2301542      1.5724950      2.4794219
P        1.6768487      7.6367033      5.4996200
O        1.7995486      7.1188656      7.0231544
C        1.3436149      7.8989741      8.1642642
X        1.5548031      7.1573742      9.4775702
X        1.6182435      4.8627065     10.0384619
X        2.4465219      3.1471030      8.2116671
X        2.5359439      0.8371552      8.9594464
P        5.2718071      8.1250773     10.1813158
O        6.0438126      7.0223789     11.0129256
C        7.3382795      7.1657570     11.6349447
X        8.4128913      7.4986158     10.6055331
X        8.9143760      9.4508995      9.4196029
X        8.0683384     12.3249923      9.6890732
P       11.5150394      6.3812539     12.7033833
O       12.4682216      5.5262265     11.7401660
C       12.9390464      4.1962694     12.0732885
X       14.0441054      3.7485419     11.1079257
X       16.3794570      3.6839046     11.1971379
X       18.1623494      3.7163612     13.6261505
P       12.9466899      0.0849949     11.3756076
O       13.8028916     -0.7905716     10.3527189
C       13.5855186     -2.1830747     10.3242145
X       14.4729686     -2.8045808      9.2720275
X       16.3155025     -2.0936420      7.9862285
X       18.1473243     -0.4167799      8.8206779
X       20.1994198     -0.6028858      7.5592361
   142
  Step:         1475 Total energy:    2011.5905432450340      Temperature:   0.53577229023849438     
O       -4.4428413     -4.1405345    -15.4187224
C       -3.2538892     -3.8091521    -14.6619316
X       -1.9648751     -4.3279880    -15.3354983
X       -1.4952449     -5.9764000    -16.9644371
X       -3.0995394     -6.8567279    -18.8505994
X       -1.9008608     -7.4153068    -20.9222104
P       -1.1566462     -1.3140498    -17.4862705
O        0.0256102     -1.6047317    -18.5628943
C        1.3715019     -1.6923677    -18.0797741
X        1.7575182     -0.4255635    -17.3148835
X        0.7400649      1.6826985    -16.8673455
X       -1.8152744      2.0814962    -16.5491513
X       -2.2520954      4.4026525    -15.9772901
P        1.5671627     -1.9016242    -13.7881179
O        2.6541600     -1.1884346    -12.8922173
C        4.0432691     -1.6571783    -12.8759391
X        4.9301239     -1.0159600    -11.8206341
X        4.6708062      0.6647526    -10.1797940
X        2.2926582      1.2474820     -9.2455408
X        2.2861776      1.2267887     -6.8139422
P        4.7044142     -4.0661618     -9.4584409
O        5.5019725     -3.7554454     -8.1103021
C        6.7013765     -4.4024838     -7.7127220
X        6.9992430     -4.2485204     -6.2097356
X        6.4668916     -5.4292941     -4.2415370
X        5.9601473     -7.9804475     -4.0878446
X        6.3025219     -8.6945699     -1.7519248
P       10.8596816     -4.4624833     -6.2590452
O       11.3838285     -4.9709592     -4.8719275
C       12.6468398     -5.6491942     -4.8228117
X       13.0628821     -5.9606716     -3.4078482
X       12.3778600     -5.2466397     -1.2641899
X        9.7536529     -4.0297816     -0.2524275
P       11.3596477     -9.3036734     -3.0618872
O       11.6741867     -9.9720468     -1.6337797
C       10.9424169    -11.0535829     -1.0492194
X       11.3070777    -11.1574739      0.4001442
X       13.1713073    -10.6066045      1.6976218
X       14.7985158     -8.7503137      0.8237466
X       16.2467893     -7.9842187      2.6251951
P        8.9648381     -8.4876349      1.7492677
O        9.0748704     -8.2579969      3.3040224
C        9.0001577     -9.4088328      4.1438661
X        8.8255882     -9.0360147      5.5736959
X        9.2832879     -7.1102046      6.8927087
X        9.0160146     -4.8174631      5.6093959
X        8.2658206     -2.9969716      7.0844752
P        5.0175703     -8.7792377      5.4474800
O        4.4341265     -8.0581416      6.7380016
C        4.0616121     -8.7605009      7.9087740
X        3.2432828     -7.8699453      8.8536200
X        3.0559479     -5.5338755      9.1572976
X        3.3557889     -3.2460600      7.2260805
P       -0.2133982     -8.6823919      7.4345261
O       -1.1993347     -7.4345647      7.6732447
C       -2.1835747     -7.3627179      8.6998590
X       -2.7153111     -5.9405227      8.8748732
X       -2.2887784     -3.8585560      7.9139796
X       -1.4251962     -2.8750722      5.1230716
P       -6.2398535     -6.2795414      7.4193136
O       -7.0730310     -4.9297569      7.2144840
C       -8.4691491     -4.8663039      7.4456152
X       -9.0338166     -3.5190676      7.1473138
X       -8.3696618     -1.2770670      7.4960220
X       -5.6497937     -0.2655277      8.2482678
P       -9.6457858     -4.2019969      3.4683070
O      -11.1902253     -3.8933401      3.1145302
C      -11.6176667     -2.5519596      2.8131931
X      -12.9521289     -2.5356312      2.0844213
X      -13.8652062     -3.8143561      0.2906681
X      -13.2393259     -6.5267717     -0.8401222
P      -15.3638669     -2.4680229      5.0476080
O      -16.5402300     -1.3538691      4.8784412
C      -17.3741884     -1.1805429      3.7234487
X      -18.4694730     -0.1181710      3.8847773
X      -19.5304733      0.7356587      5.8068052
X      -18.9101140      0.5726952      8.7505754
P      -16.4880965      2.7764088      2.1875410
O      -17.3408554      3.5238297      1.0710383
C      -16.7161737      3.8290487     -0.1553067
X      -15.9201345      2.6317324     -0.5592078
X      -16.4848236      0.6051191     -1.6263370
X      -18.7402904     -0.0070918     -3.5096549
P      -13.7792358      4.3951715     -3.2677860
O      -13.2214356      3.3639286     -4.3325145
C      -13.9440833      2.9148439     -5.4783236
X      -14.4785899      4.0958047     -6.3033596
X      -14.8395318      6.3814558     -5.9161267
X      -13.5630029      8.2087611     -3.8365331
P      -11.3489510      4.6421803     -8.5346329
O      -11.3895597      6.0499370     -9.2430040
C      -11.0922646      6.3322997    -10.6180089
X      -10.5998197      7.7673474    -10.8437571
X      -11.1198231      9.9137950    -10.0017268
X      -12.1522543     10.4080914     -7.6293062
X      -12.5105791     12.5052896     -7.0813220
P       -6.9976437      6.9628295     -9.9782629
O       -6.4116508      7.9674956     -8.8830371
C       -6.7558501      7.9655226     -7.4802754
X       -6.4803133      6.6159163     -6.8118047
X       -5.6336056      4.5528794     -7.5080289
X       -4.0210604      3.8697040     -9.4725753
X       -2.4114670      2.4741223     -9.0374318
P       -3.4357245      7.7185594     -4.7692313
O       -3.5514892      7.3759758     -3.2145727
C       -3.7660336      8.4353340     -2.2732402
X       -3.9584922      7.8504140     -0.8728820
X       -5.0026226      5.9743815      0.0081274
X       -5.5767667      3.1949723     -0.9514245
P       -0.2808081      7.3972282      0.1778938
O       -0.1525522      6.3752511      1.4095684
C       -1.0657506      6.3893735      2.5287510
X       -0.6145888      5.3782407      3.5564692
X        0.8308927      3.5606087      3.5799372
X        2.6632936      2.9392690      1.8125836
X        4.2447758      1.5732234      2.5062800
P        1.6139895      7.6590157      5.5329085
O        1.8439714      7.1990640      7.0249687
C        1.3549946      7.9186171      8.1405901
X        1.5848665      7.1150904      9.4069536
X        1.7100209      4.8520949     10.0311458
X        2.4231354      3.1527542      8.2117884
X        2.5483468      0.8186568      8.9704336
P        5.2260615      8.1363787     10.1854908
O        6.0015787      7.0180164     11.0287526
C        7.3239275      7.1738991     11.6743476
X        8.4066200      7.4946541     10.6442985
X        8.9183678      9.4389663      9.3838131
X        8.0827524     12.3232041      9.6996753
P       11.4796519      6.3878878     12.6629695
O       12.4530017      5.5426242     11.7490728
C       12.9120629      4.2151433     12.0630336
X       14.0167593      3.7546333     11.1174277
X       16.3509221      3.7273653     11.2254706
X       18.1665696      3.7155908     13.6119197
P       12.9593589      0.0798409     11.3686765
O       13.7850470     -0.8274649     10.3749404
C       13.6128719     -2.2186102     10.2689736
X       14.5113217     -2.8253390      9.2164027
X       16.2952643     -2.0074479      7.9234936
X       18.1479144     -0.4022171      8.8254606
X       20.2160241     -0.5850360      7.5362265
   142
  Step:         1500 Total energy:    2010.7113135118389      Temperature:   0.53617921837649751     
O       -4.4054020     -4.0848744    -15.4738555
C       -3.2399737     -3.7863283    -14.6813839
X       -1.9828407     -4.3769493    -15.3002830
X       -1.5079785     -5.9814874    -16.9179461
X       -3.0775830     -6.8339696    -18.8560630
X       -1.9096585     -7.4192600    -20.9293959
P       -1.0828296     -1.3197050    -17.5005039
O        0.0416542     -1.6519238    -18.5100530
C        1.3814999     -1.7099771    -18.1147777
X        1.7351281     -0.4786376    -17.3588690
X        0.7791159      1.6207302    -16.9204194
X       -1.7831978      2.0479135    -16.5701416
X       -2.2552238      4.4072201    -15.9624039
P        1.5601953     -1.8667502    -13.8217013
O        2.6768569     -1.2465066    -12.8396094
C        4.0686734     -1.5238879    -12.9883246
X        4.8628869     -1.0527751    -11.8051814
X        4.6494020      0.6270232    -10.1710100
X        2.2783767      1.2284481     -9.2731415
X        2.3286732      1.2174644     -6.8088025
P        4.7292011     -4.0636780     -9.4280284
O        5.4554795     -3.7664700     -8.0371747
C        6.7467398     -4.3312217     -7.6808386
X        6.9982033     -4.2048466     -6.1880902
X        6.3931272     -5.3812210     -4.2745011
X        5.9491488     -7.9702108     -4.0541234
X        6.2809153     -8.6924188     -1.7666262
P       10.8460839     -4.4510649     -6.3004796
O       11.4457405     -4.8852165     -4.8726825
C       12.6511328     -5.6719886     -4.8402816
X       13.0798616     -5.9284942     -3.4090343
X       12.3519164     -5.1961191     -1.2834308
X        9.7536837     -4.0275122     -0.2224781
P       11.3712383     -9.3501398     -3.0727533
O       11.6837697     -9.9346793     -1.6547671
C       10.9488057    -11.0154895     -1.0526897
X       11.2806533    -11.1660868      0.4140528
X       13.1761756    -10.6403120      1.7025798
X       14.7913961     -8.7724342      0.8179646
X       16.2469540     -8.0091329      2.6436907
P        8.9882998     -8.4723468      1.6652492
O        9.0938047     -8.2879333      3.2483164
C        9.0058356     -9.4195071      4.1365821
X        8.8094296     -9.0021399      5.5719462
X        9.3038377     -7.0835452      6.7922680
X        9.0145515     -4.7902285      5.6238389
X        8.2891809     -2.9909294      7.0994042
P        4.9716515     -8.7795839      5.4547112
O        4.3453917     -8.0457573      6.7154736
C        4.1179558     -8.7155110      7.9605561
X        3.3187559     -7.8150036      8.8601968
X        3.0023103     -5.5367758      9.1395570
X        3.3434192     -3.2458611      7.2118709
P       -0.1980733     -8.6660350      7.4242373
O       -1.1703568     -7.4323712      7.7242516
C       -2.1971950     -7.3252239      8.7107313
X       -2.6945506     -5.8750049      8.8772776
X       -2.3568816     -3.8181583      7.8561860
X       -1.4387387     -2.8578972      5.1071931
P       -6.2443275     -6.2664100      7.3852192
O       -7.0374081     -4.9067083      7.1691517
C       -8.4665202     -4.8816011      7.4755870
X       -9.0536511     -3.5369974      7.1333736
X       -8.3469290     -1.2892263      7.5109272
X       -5.6456067     -0.2513545      8.2309968
P       -9.6271678     -4.1975165      3.4758793
O      -11.1395988     -3.8545163      3.1020120
C      -11.6644345     -2.5435177      2.8293299
X      -12.9752856     -2.5688571      2.0634094
X      -13.8628121     -3.8088580      0.2724166
X      -13.2450728     -6.5109818     -0.8465752
P      -15.4073789     -2.4563907      5.0599697
O      -16.5400773     -1.3548989      4.8487455
C      -17.3981061     -1.2371602      3.7041114
X      -18.4202544     -0.1151219      3.9496317
X      -19.5405350      0.7099619      5.8235441
X      -18.8832964      0.5438358      8.7633093
P      -16.4661901      2.7532395      2.2291132
O      -17.3109533      3.5312110      1.1066770
C      -16.7228566      3.7815938     -0.1776812
X      -15.9322042      2.5866381     -0.6196526
X      -16.5003449      0.5315821     -1.6235659
X      -18.7547534      0.0065570     -3.5215308
P      -13.8134753      4.4019315     -3.2999361
O      -13.3073390      3.3225122     -4.3898050
C      -14.0904021      2.9319469     -5.5093805
X      -14.4892324      4.1104449     -6.3528736
X      -14.7922790      6.3958638     -5.9767637
X      -13.5457103      8.2036613     -3.8274148
P      -11.4094027      4.6194703     -8.5582010
O      -11.3542679      6.1292426     -9.1736626
C      -11.0854945      6.3487497    -10.5979628
X      -10.6374706      7.7796936    -10.8867405
X      -11.1304831      9.8847139     -9.9912592
X      -12.1713652     10.4017542     -7.6270836
X      -12.4920917     12.4774465     -7.0886897
P       -6.9819717      6.9338781     -9.9392216
O       -6.3785182      7.9462253     -8.8882478
C       -6.7581528      7.9195702     -7.5110085
X       -6.4295282      6.5871381     -6.8365462
X       -5.6165298      4.4570301     -7.4541339
X       -4.0386044      3.8640932     -9.4703684
X       -2.4416636      2.4576506     -9.0343988
P       -3.4196291      7.7034353     -4.7890070
O       -3.5558769      7.3507828     -3.2462538
C       -3.6925745      8.3711910     -2.2541706
X       -3.9770831      7.8280482     -0.8646281
X       -5.0022841      5.9419347      0.0920559
X       -5.5904799      3.1835981     -0.9400708
P       -0.2573478      7.4112949      0.2055989
O       -0.1099982      6.4065952      1.4170612
C       -1.0822489      6.3181497      2.4611368
X       -0.6365822      5.3484223      3.5627088
X        0.7744060      3.4745320      3.6075245
X        2.6863758      2.9331517      1.8353775
X        4.2503521      1.5967261      2.5192025
P        1.5789271      7.7429144      5.5535046
O        1.8630746      7.1770318      7.0271355
C        1.4011762      7.9022402      8.1590622
X        1.6817306      7.1383675      9.4374382
X        1.7103511      4.8757561     10.0471607
X        2.4064833      3.1344600      8.1982344
X        2.5578614      0.8106814      8.9849367
P        5.2053402      8.1425942     10.2075640
O        5.9767219      7.0139873     11.0274060
C        7.2567825      7.1802919     11.6381488
X        8.3237335      7.5813207     10.6971563
X        8.8709367      9.4425530      9.3864403
X        8.1011233     12.3140856      9.7105230
P       11.4265562      6.3929883     12.6161581
O       12.5127007      5.5841368     11.7402573
C       12.8730726      4.2568400     12.0723518
X       13.9373988      3.7544549     11.1549451
X       16.2949704      3.6987991     11.2274178
X       18.1734723      3.7154630     13.5957787
P       12.9643421      0.0964321     11.3704843
O       13.8160520     -0.8619399     10.3785188
C       13.6421477     -2.3082828     10.2673210
X       14.5301942     -2.8244484      9.1256800
X       16.3193341     -1.9867076      7.8514328
X       18.1407410     -0.3764131      8.8424280
X       20.2370818     -0.5759646      7.5100924
   142
  Step:         1525 Total energy:    2010.6457308600759      Temperature:   0.52684685348006588     
O       -4.3453385     -4.0218725    -15.5206601
C       -3.2409053     -3.8022479    -14.6686462
X       -1.9988868     -4.3490695    -15.3464047
X       -1.4896522     -6.0443416    -16.8822814
X       -3.0682672     -6.8108910    -18.8582108
X       -1.9116188     -7.4190426    -20.9298378
P       -1.0957264     -1.3287224    -17.4805233
O        0.0409403     -1.7592477    -18.5626079
C        1.4581766     -1.7648294    -18.1682134
X        1.8312771     -0.4841951    -17.3789634
X        0.7875318      1.5761067    -16.9802742
X       -1.7683651      2.0643722    -16.5858788
X       -2.2454162      4.3768875    -15.9490660
P        1.5719513     -1.8405918    -13.8164999
O        2.6779170     -1.2947699    -12.8235967
C        4.0497634     -1.5099379    -13.0382315
X        4.8682560     -1.0595273    -11.8255781
X        4.6258010      0.5674387    -10.1680364
X        2.2611182      1.2178771     -9.2729175
X        2.3579763      1.2139438     -6.8229859
P        4.7528945     -4.0534741     -9.3959181
O        5.4102650     -3.7817936     -7.9716402
C        6.7414716     -4.2761037     -7.6672313
X        7.0150695     -4.1468929     -6.1845106
X        6.3273982     -5.3433440     -4.3002493
X        5.9311677     -7.9458689     -4.0577552
X        6.2621912     -8.7032712     -1.7521198
P       10.8135112     -4.4287910     -6.3283429
O       11.5141913     -4.8246674     -4.9588758
C       12.6572037     -5.6468736     -4.8479378
X       13.0565738     -5.9274504     -3.4207157
X       12.3663044     -5.1904952     -1.3072718
X        9.7458670     -4.0248766     -0.1918304
P       11.3929479     -9.3746440     -3.1036716
O       11.7175224     -9.9793855     -1.6379102
C       10.9017141    -11.0180054     -1.0686860
X       11.2944601    -11.1763980      0.3943312
X       13.1957339    -10.6852684      1.6671648
X       14.7947291     -8.7954061      0.8274656
X       16.2475820     -8.0385457      2.6603595
P        8.9811520     -8.4229548      1.6167157
O        9.1112524     -8.3348030      3.2059335
C        8.9781834     -9.4610188      4.0784189
X        8.8021626     -9.0115924      5.5639415
X        9.2526490     -7.0840566      6.8271751
X        9.0153697     -4.7498992      5.6044132
X        8.3119836     -2.9837263      7.1335574
P        4.9422079     -8.7855632      5.4428192
O        4.3204733     -8.0240454      6.6920952
C        4.1534491     -8.6850677      7.9860941
X        3.3027763     -7.8171000      8.9023779
X        2.9367902     -5.5274378      9.1346858
X        3.3321836     -3.2498642      7.2037414
P       -0.1878872     -8.6288980      7.4708715
O       -1.1709246     -7.3686358      7.6692799
C       -2.1657489     -7.2890082      8.7319316
X       -2.7366796     -5.8585946      8.9025612
X       -2.4173292     -3.7510901      7.8662655
X       -1.4393887     -2.8409442      5.0862956
P       -6.2239370     -6.2822853      7.3367928
O       -7.0088420     -4.9143646      7.2284869
C       -8.4309503     -4.8715144      7.4824302
X       -9.0205490     -3.5380351      7.1834168
X       -8.3613672     -1.3235280      7.5556267
X       -5.6353867     -0.2354126      8.2176882
P       -9.6518596     -4.1766145      3.4626974
O      -11.1338368     -3.8634568      2.9897027
C      -11.6695813     -2.5504984      2.8480311
X      -12.9857503     -2.5815111      2.0805760
X      -13.8845526     -3.7431180      0.2556121
X      -13.2558978     -6.4964463     -0.8551735
P      -15.4526993     -2.4502819      5.0461966
O      -16.5316663     -1.3054369      4.8403549
C      -17.4088782     -1.2585151      3.7183146
X      -18.3694541     -0.1227409      3.9861952
X      -19.5120777      0.7122268      5.8354082
X      -18.8566821      0.5195474      8.7716336
P      -16.4473016      2.7418290      2.2932923
O      -17.2533522      3.5059103      1.1680452
C      -16.7356322      3.7760802     -0.1626669
X      -15.9652834      2.5617256     -0.6898480
X      -16.4552014      0.4908583     -1.6818337
X      -18.7748943      0.0220583     -3.5251314
P      -13.8577854      4.3661165     -3.3315888
O      -13.3876192      3.3360337     -4.4314138
C      -14.1315079      2.9263463     -5.5972058
X      -14.5532657      4.1526961     -6.4116128
X      -14.7480434      6.4488952     -5.9781344
X      -13.5258534      8.2054213     -3.8122938
P      -11.4591152      4.6469942     -8.5892332
O      -11.3625497      6.0997682     -9.1522056
C      -11.1796710      6.3444663    -10.5346695
X      -10.6242700      7.7327213    -10.8134946
X      -11.1182199      9.8715166    -10.0101897
X      -12.1846064     10.3701732     -7.6230641
X      -12.4692617     12.4701759     -7.0940923
P       -6.9515371      6.9067380     -9.9274227
O       -6.3228387      7.9366786     -8.8699614
C       -6.7452352      7.8473385     -7.5215927
X       -6.4242043      6.5582275     -6.8175384
X       -5.5729697      4.4511724     -7.4028551
X       -4.0678225      3.8632505     -9.4717785
X       -2.4591557      2.4361493     -9.0218725
P       -3.3904215      7.6992826     -4.8227109
O       -3.5774527      7.2900054     -3.2680544
C       -3.6786703      8.2994588     -2.2320388
X       -3.9065436      7.8033552     -0.8186734
X       -5.0466499      5.9445051      0.1226931
X       -5.5988007      3.1728048     -0.9268536
P       -0.2692855      7.4279413      0.2119904
O       -0.1062676      6.4082212      1.4404314
C       -1.0607448      6.2960746      2.4770083
X       -0.6000208      5.3012758      3.5227104
X        0.7799809      3.4257477      3.5887835
X        2.6737703      2.9272135      1.8714624
X        4.2749843      1.6160103      2.5364042
P        1.5524458      7.8164261      5.5678026
O        1.8480926      7.1826527      7.0015723
C        1.5393935      7.9209481      8.2059176
X        1.6723845      7.1099115      9.5039440
X        1.6802903      4.8447130     10.0166296
X        2.3955871      3.1027014      8.1948528
X        2.5637326      0.8123748      9.0000701
P        5.2309365      8.1790431     10.2289214
O        5.9682160      6.9813767     11.0091914
C        7.1618484      7.2578874     11.7295425
X        8.2681302      7.5604902     10.6893654
X        8.8502848      9.4261271      9.3546857
X        8.1137184     12.3225858      9.7242952
P       11.3977141      6.3875372     12.5834517
O       12.5189568      5.6285304     11.7594422
C       12.7986794      4.2906552     12.0833097
X       13.9120369      3.7488494     11.1912372
X       16.2574015      3.6271909     11.3041159
X       18.1688937      3.7143003     13.5684708
P       12.9833593      0.0407392     11.3629633
O       13.8519750     -0.8567678     10.4058848
C       13.7188188     -2.2905086     10.2394897
X       14.5225025     -2.7956502      9.0548403
X       16.3351488     -1.9780924      7.8543933
X       18.1770295     -0.3613672      8.8176037
X       20.2135509     -0.5662133      7.5118559
   142
  Step:         1550 Total energy:    2011.0321163675660      Temperature:   0.55690334057979241     
O       -4.3617954     -3.9804494    -15.5739766
C       -3.2332017     -3.8190838    -14.7097953
X       -1.9511730     -4.3635634    -15.3625905
X       -1.4918826     -6.0849932    -16.9018896
X       -3.0702662     -6.7893610    -18.8456474
X       -1.9035336     -7.4118279    -20.9228109
P       -1.0884229     -1.3675599    -17.5190692
O        0.0750082     -1.7544727    -18.4739474
C        1.4550936     -1.7802958    -18.1630243
X        1.8584332     -0.4948276    -17.4606436
X        0.8142437      1.5457015    -17.0023544
X       -1.7491972      2.0646245    -16.6057848
X       -2.2283192      4.3522341    -15.9377808
P        1.5558212     -1.8462484    -13.8042931
O        2.6884195     -1.2625847    -12.8298438
C        4.0621921     -1.6599845    -12.9745016
X        4.9497863     -1.0277911    -11.8786068
X        4.6147717      0.5293821    -10.1906430
X        2.2468342      1.2087865     -9.2621916
X        2.3796322      1.2083268     -6.8340592
P        4.7499250     -4.0542157     -9.3826659
O        5.4217781     -3.7632764     -7.9696046
C        6.7226123     -4.1912304     -7.6686980
X        6.9741849     -4.1274795     -6.1630075
X        6.3233810     -5.3507010     -4.2580694
X        5.9104859     -7.9130882     -4.0748468
X        6.2366940     -8.7171273     -1.7505157
P       10.8016605     -4.3999857     -6.3743499
O       11.5040187     -4.7632330     -4.9721249
C       12.6582980     -5.6180415     -4.8977225
X       13.0232935     -5.9344891     -3.4295924
X       12.3220102     -5.2050584     -1.3276077
X        9.7373310     -4.0281479     -0.1630385
P       11.4350119     -9.3871922     -3.1104920
O       11.7073323    -10.0486327     -1.7130669
C       10.9082797    -11.0401432     -1.1082667
X       11.2799120    -11.1828021      0.3576478
X       13.2084109    -10.7667216      1.5992620
X       14.8089821     -8.8120391      0.8514334
X       16.2444716     -8.0702975      2.6663161
P        8.9797205     -8.3926360      1.6306478
O        9.0916210     -8.3276359      3.2339397
C        8.9507763     -9.4389574      4.0866025
X        8.7595933     -9.0174138      5.5335226
X        9.1271940     -7.0741595      6.7255361
X        9.0100959     -4.7218038      5.5813263
X        8.3272066     -2.9654693      7.1813394
P        4.9354592     -8.7857544      5.4325149
O        4.3818223     -8.0204484      6.7111594
C        4.1131879     -8.6705966      7.9622054
X        3.2714498     -7.8040146      8.9039522
X        2.9282221     -5.4808089      9.1590947
X        3.3145965     -3.2499769      7.1976136
P       -0.1954934     -8.5563091      7.5272759
O       -1.1975311     -7.3339071      7.6404575
C       -2.1360225     -7.1851407      8.7095276
X       -2.7293867     -5.8305787      8.8586068
X       -2.4191397     -3.7757056      7.7975142
X       -1.4397781     -2.8300748      5.0766328
P       -6.1753802     -6.3127270      7.2894008
O       -7.0028303     -4.9335113      7.3110713
C       -8.4136595     -4.9209110      7.5171305
X       -9.0001219     -3.5400908      7.2052961
X       -8.3834599     -1.3301564      7.6252961
X       -5.6256656     -0.2189593      8.2009830
P       -9.6637796     -4.1646873      3.4405901
O      -11.1633019     -3.9042061      2.9117620
C      -11.6841630     -2.5650584      2.8471105
X      -13.0101196     -2.5513150      2.0704251
X      -13.8611339     -3.7620558      0.2804796
X      -13.2699611     -6.4744547     -0.8601682
P      -15.4634895     -2.4716846      5.0232493
O      -16.4946640     -1.2679275      4.8645141
C      -17.3931682     -1.2164216      3.7499318
X      -18.4153552     -0.1225596      3.9372053
X      -19.4594724      0.7520106      5.8531685
X      -18.8317147      0.4955463      8.7823441
P      -16.4027641      2.7429703      2.3529395
O      -17.2385006      3.4573806      1.1688888
C      -16.7762220      3.7274658     -0.1656491
X      -15.9605402      2.5392905     -0.6771648
X      -16.4212758      0.5630067     -1.7731930
X      -18.8001298      0.0347049     -3.5364984
P      -13.9254625      4.3226870     -3.3691184
O      -13.4068106      3.3281378     -4.5183200
C      -14.1556122      2.9662779     -5.7104592
X      -14.6153623      4.2017661     -6.4699619
X      -14.7877080      6.4935105     -5.9814121
X      -13.5035176      8.2104201     -3.7925171
P      -11.5019155      4.6140308     -8.5973484
O      -11.3978384      6.1235483     -9.1623765
C      -11.2292421      6.3208967    -10.5503802
X      -10.6256784      7.7008050    -10.6961393
X      -11.0853233      9.8642319     -9.9450800
X      -12.1939857     10.3470689     -7.6377844
X      -12.4456455     12.4591338     -7.1018555
P       -6.9131433      6.8870825     -9.9440606
O       -6.2968563      7.8497070     -8.8467768
C       -6.7414528      7.8810566     -7.4859278
X       -6.4443084      6.5536344     -6.7755851
X       -5.5459698      4.4521612     -7.3656285
X       -4.0828642      3.8429199     -9.4673530
X       -2.4886246      2.4263914     -9.0176020
P       -3.3757559      7.6887599     -4.8116442
O       -3.5433639      7.2910976     -3.2794029
C       -3.6434773      8.2748412     -2.2451061
X       -3.9158672      7.7205296     -0.8580211
X       -5.0030744      5.8820773      0.1134163
X       -5.6083152      3.1729541     -0.9130750
P       -0.2736356      7.4359049      0.2318600
O       -0.0852387      6.4084145      1.4243743
C       -1.0360151      6.2847799      2.4744613
X       -0.5627982      5.3402850      3.5697954
X        0.7682314      3.3886097      3.6633476
X        2.6624189      2.9083722      1.8789592
X        4.3065464      1.6257841      2.5584262
P        1.5097152      7.8357562      5.5822383
O        1.8285626      7.2557167      7.0325506
C        1.5752924      7.9804921      8.2348037
X        1.6762806      7.0909511      9.4820698
X        1.5955319      4.7971563     10.0149683
X        2.3912300      3.0940159      8.1795259
X        2.5648107      0.7964473      9.0178671
P        5.2619611      8.1798624     10.2475027
O        5.9911929      7.0415024     11.0416028
C        7.1819735      7.2829675     11.7355396
X        8.2354341      7.5611196     10.6613912
X        8.7609750      9.4238603      9.3932234
X        8.1211265     12.3383854      9.7392093
P       11.3668765      6.4004593     12.6071180
O       12.4823209      5.6080110     11.7605473
C       12.7881256      4.2545651     12.1169980
X       13.8558269      3.6982441     11.1869896
X       16.2002394      3.5518559     11.2657804
X       18.1693975      3.7227360     13.5514698
P       12.9932558     -0.0203884     11.3696353
O       13.9524866     -0.8449735     10.3746228
C       13.7141650     -2.2455448     10.2161543
X       14.5358543     -2.7452008      9.0485269
X       16.3568149     -1.9527756      7.8142106
X       18.1883917     -0.3573730      8.8021469
X       20.2180521     -0.5562658      7.5047529
   142
  Step:         1575 Total energy:    2007.8910348412039      Temperature:   0.54333989690162987     
O       -4.3709161     -3.9733615    -15.6087198
C       -3.2183469     -3.8078258    -14.7805229
X       -1.9685155     -4.4228841    -15.3494914
X       -1.4202443     -6.0941769    -16.9315855
X       -3.0819994     -6.7805593    -18.8486054
X       -1.8944994     -7.3984209    -20.8960875
P       -1.1081877     -1.3985604    -17.5244762
O        0.1391837     -1.7512321    -18.5359380
C        1.4993128     -1.8061414    -18.1206895
X        1.8564573     -0.4984311    -17.4132320
X        0.8264586      1.5688279    -17.0460327
X       -1.7223105      2.0248142    -16.6243502
X       -2.2064727      4.3537568    -15.9304049
P        1.5413729     -1.8439564    -13.7984905
O        2.7329995     -1.2448294    -12.9035981
C        4.1016448     -1.7297186    -12.9460830
X        4.9585755     -1.1276108    -11.8385831
X        4.6051246      0.5795116    -10.2931286
X        2.2489941      1.1915229     -9.2675576
X        2.3906864      1.2078356     -6.8153861
P        4.7311766     -4.0297905     -9.4150006
O        5.4190594     -3.6855820     -7.9902416
C        6.6859597     -4.2118416     -7.6295278
X        6.9875823     -4.0784838     -6.1445509
X        6.3657724     -5.3163056     -4.2160323
X        5.8934803     -7.9001183     -4.0595315
X        6.2011441     -8.7200517     -1.7841301
P       10.8061463     -4.3695259     -6.3973712
O       11.4382467     -4.7460806     -4.9880920
C       12.5966584     -5.5919549     -4.9072579
X       13.0050743     -5.8946589     -3.4564425
X       12.2625194     -5.2792467     -1.3382786
X        9.7337611     -4.0349860     -0.1361391
P       11.4539754     -9.3952154     -3.1596684
O       11.7496319    -10.0838982     -1.7268578
C       10.8752491    -11.0742116     -1.1480279
X       11.2493557    -11.2072733      0.3167863
X       13.2236397    -10.8146071      1.5255014
X       14.8124182     -8.8400504      0.8633771
X       16.2558056     -8.0973855      2.6980581
P        8.9949514     -8.3979456      1.6908548
O        9.0363467     -8.2642479      3.2648313
C        8.9238885     -9.4605183      4.0359114
X        8.6886406     -9.0516873      5.4857111
X        9.0191084     -7.0395364      6.6989671
X        8.9916047     -4.6657674      5.5783192
X        8.3483675     -2.9704344      7.2127794
P        4.9427824     -8.7841630      5.4330743
O        4.4181774     -8.0016104      6.7549271
C        4.0160684     -8.6612611      7.9199045
X        3.2844238     -7.7597196      8.8730008
X        2.9714337     -5.4417702      9.1818156
X        3.3017247     -3.2399892      7.1941186
P       -0.2119901     -8.5104205      7.5610467
O       -1.1980655     -7.2599327      7.6416106
C       -2.1355987     -7.2254677      8.7154930
X       -2.7049894     -5.8184230      8.8321560
X       -2.4423054     -3.6994215      7.8024206
X       -1.4365134     -2.8143728      5.0591840
P       -6.1198592     -6.3256311      7.2475331
O       -6.9992587     -4.9892683      7.3567629
C       -8.4011430     -4.9726209      7.5360820
X       -9.0133697     -3.5552877      7.2133251
X       -8.3360766     -1.3775101      7.6669469
X       -5.6248941     -0.1996640      8.1808754
P       -9.6775314     -4.1673736      3.4105218
O      -11.1615766     -3.8803089      2.9552989
C      -11.6948390     -2.5754150      2.8590327
X      -12.9889173     -2.5060295      2.0589902
X      -13.9094557     -3.7399376      0.2839522
X      -13.2844784     -6.4548093     -0.8659589
P      -15.4502945     -2.4914513      5.0034697
O      -16.4878474     -1.2773468      4.8540415
C      -17.3678351     -1.1829490      3.7324620
X      -18.4159983     -0.1019696      3.9390029
X      -19.4704197      0.7922440      5.8725298
X      -18.8061077      0.4727609      8.7911786
P      -16.3748135      2.7590475      2.3719861
O      -17.2309023      3.3957079      1.1764906
C      -16.7578836      3.6917519     -0.1109921
X      -15.9228203      2.5302278     -0.6449430
X      -16.3842934      0.6079048     -1.8769580
X      -18.8294412      0.0422553     -3.5518481
P      -13.9964042      4.2834624     -3.4357373
O      -13.4619356      3.3182528     -4.5895162
C      -14.2165659      3.0367604     -5.7636424
X      -14.6335101      4.2696354     -6.4958054
X      -14.8763670      6.5307173     -5.9400855
X      -13.4772962      8.2131459     -3.7722975
P      -11.5514982      4.5890518     -8.5878177
O      -11.4554845      6.0550837     -9.1348563
C      -11.1976193      6.3189378    -10.5083023
X      -10.5911079      7.7003816    -10.7468939
X      -10.9827951      9.8752665     -9.9180204
X      -12.2101376     10.3496235     -7.6340963
X      -12.4238075     12.4326217     -7.1115834
P       -6.8975699      6.8509413     -9.9593357
O       -6.2754909      7.7902051     -8.8295013
C       -6.7692325      7.8501951     -7.4676391
X       -6.4372722      6.5561462     -6.7324921
X       -5.5946897      4.4875012     -7.3769742
X       -4.0966016      3.8287578     -9.4416418
X       -2.5117209      2.4087084     -9.0221585
P       -3.3738243      7.6705195     -4.8002914
O       -3.4680601      7.2438972     -3.2684378
C       -3.6761351      8.2691229     -2.3020245
X       -3.8908661      7.7277256     -0.9004353
X       -4.9565582      5.9207439      0.1400114
X       -5.6170991      3.1548298     -0.9090651
P       -0.2613191      7.4444054      0.2432731
O       -0.0663139      6.3885315      1.4295307
C       -0.9899006      6.3082338      2.5336213
X       -0.5496079      5.3507055      3.6103485
X        0.8351874      3.4734287      3.6782144
X        2.6568645      2.8622280      1.8993989
X        4.3304697      1.6469569      2.5790587
P        1.4706855      7.8371173      5.6068507
O        1.8340131      7.2844137      7.0715148
C        1.4382486      7.9638842      8.2581336
X        1.7293039      7.1310633      9.4722678
X        1.5352200      4.8371531      9.9221819
X        2.3877826      3.0848187      8.1758915
X        2.5554017      0.7827240      9.0348750
P        5.2533279      8.1838187     10.2451809
O        5.9761138      7.0568816     11.1645775
C        7.2843862      7.2203519     11.7366220
X        8.2803086      7.5598985     10.6687648
X        8.7265917      9.4207931      9.3528247
X        8.1199285     12.3712204      9.7508413
P       11.3556200      6.4146660     12.6455968
O       12.3796673      5.5287934     11.7875301
C       12.7733400      4.1783951     12.1078493
X       13.8536963      3.6523969     11.1980161
X       16.1689155      3.5199059     11.2713121
X       18.1707877      3.7274034     13.5265250
P       13.0140338     -0.0472884     11.3708677
O       13.9693212     -0.8419371     10.3983643
C       13.7025061     -2.1936990     10.1492479
X       14.5799096     -2.7387866      9.0388076
X       16.3808759     -1.9360177      7.7546617
X       18.1651953     -0.3550780      8.8017722
X       20.2592857     -0.5492877      7.4792042
   142
  Step:         1600 Total energy:    2009.0367990506668      Temperature:   0.58180136061356003     
O       -4.3769968     -4.0231135    -15.6514262
C       -3.2334816     -3.8576046    -14.7681697
X       -1.9734067     -4.4188903    -15.3943199
X       -1.4379474     -6.0850933    -16.9365118
X       -3.0933945     -6.7698970    -18.8403510
X       -1.8851080     -7.3878582    -20.8725893
P       -1.0682510     -1.4557255    -17.5659436
O        0.1111754     -1.7487112    -18.5341345
C        1.4465003     -1.7786200    -18.0644801
X        1.8652334     -0.5111385    -17.3222118
X        0.8542911      1.6069299    -17.0738124
X       -1.7100045      2.0179093    -16.6177360
X       -2.1697825      4.3367297    -15.9435767
P        1.5732069     -1.8152572    -13.7966533
O        2.7909168     -1.2777198    -12.9436622
C        4.1103460     -1.8054967    -12.9655332
X        4.8787999     -1.1801563    -11.8330497
X        4.5713960      0.6187232    -10.3399874
X        2.2692826      1.1612049     -9.2620338
X        2.3977397      1.2125931     -6.8030658
P        4.7217237     -3.9981618     -9.4083563
O        5.4182384     -3.6384453     -8.0292190
C        6.6580760     -4.2419087     -7.6034692
X        6.9591106     -4.0804619     -6.1363363
X        6.4363379     -5.3041896     -4.2257882
X        5.8781027     -7.8636875     -4.0635337
X        6.1695163     -8.7267978     -1.8001555
P       10.7893054     -4.3331160     -6.4032325
O       11.3777063     -4.7702782     -4.9924535
C       12.5724769     -5.5296681     -4.8987725
X       12.9493144     -5.8912750     -3.4866288
X       12.2481508     -5.3194308     -1.3219428
X        9.7251440     -4.0409228     -0.1103429
P       11.4645047     -9.4152057     -3.2032320
O       11.7407587    -10.0882780     -1.8013305
C       10.8475650    -11.0126869     -1.1682545
X       11.2412958    -11.2446093      0.2750573
X       13.2019214    -10.8293768      1.5191377
X       14.8242776     -8.8738937      0.8637369
X       16.2700282     -8.1253099      2.7310475
P        9.0151181     -8.3894669      1.7066369
O        9.0231037     -8.2905078      3.2738782
C        8.8678882     -9.4688212      4.0723063
X        8.6903971     -9.0287052      5.4651241
X        8.9394556     -7.0028612      6.6227655
X        8.9653137     -4.6290365      5.5703351
X        8.3693036     -2.9652095      7.2502133
P        4.9247342     -8.7645818      5.4508310
O        4.4234796     -7.9815601      6.7221699
C        3.9787513     -8.6713816      7.8968941
X        3.2440192     -7.7623949      8.8981022
X        3.0283038     -5.4475837      9.1862801
X        3.2968307     -3.2221020      7.1851783
P       -0.2219028     -8.4910760      7.5564541
O       -1.1538942     -7.2221717      7.6724489
C       -2.1614643     -7.1625445      8.6801343
X       -2.7254351     -5.7561352      8.8744560
X       -2.3850755     -3.6867539      7.8247314
X       -1.4356763     -2.8002215      5.0440884
P       -6.0874917     -6.3345089      7.2218871
O       -7.0057509     -5.0126066      7.3562037
C       -8.4057200     -5.0171466      7.4863299
X       -9.0034447     -3.6479705      7.2232941
X       -8.3236206     -1.4437583      7.6583954
X       -5.6249295     -0.1747381      8.1585210
P       -9.6655029     -4.1825410      3.4117671
O      -11.2138286     -3.8555791      3.0321379
C      -11.6684487     -2.5144893      2.8316427
X      -12.9705419     -2.4968307      2.0672547
X      -13.9071450     -3.7186645      0.2636350
X      -13.2995232     -6.4345401     -0.8667121
P      -15.4396663     -2.4968840      4.9822296
O      -16.5109860     -1.3201557      4.8439662
C      -17.3930593     -1.1788735      3.7374219
X      -18.3537359     -0.0509617      4.0175639
X      -19.4745587      0.7675845      5.8971575
X      -18.7848650      0.4535920      8.7923338
P      -16.3767213      2.7602680      2.3805392
O      -17.2421550      3.3801699      1.1738196
C      -16.6426560      3.6891514     -0.0707976
X      -15.8871059      2.5002844     -0.6661020
X      -16.4242270      0.6042762     -1.9486394
X      -18.8572489      0.0466972     -3.5759721
P      -14.0578039      4.2900032     -3.4932625
O      -13.5479758      3.2877672     -4.6115793
C      -14.3020079      3.0023121     -5.7879185
X      -14.7249207      4.3220878     -6.4682768
X      -14.9253386      6.5816069     -5.8486042
X      -13.4544266      8.2095021     -3.7558803
P      -11.5917424      4.5532096     -8.5780303
O      -11.4124081      6.0583092     -9.1554996
C      -11.0960357      6.3326513    -10.5410372
X      -10.5307839      7.7025815    -10.7661657
X      -10.9285707      9.8343347     -9.8902789
X      -12.2045403     10.3294067     -7.6434615
X      -12.4158244     12.4399986     -7.1102800
P       -6.8965727      6.8109834     -9.9462447
O       -6.2898689      7.7778582     -8.8143347
C       -6.7468935      7.8281524     -7.4660747
X       -6.4696511      6.5417169     -6.7341124
X       -5.6503308      4.4362040     -7.3265647
X       -4.1234963      3.8400256     -9.4183762
X       -2.5178575      2.3884365     -9.0305306
P       -3.3638682      7.6442189     -4.8088360
O       -3.3996063      7.1964340     -3.2799360
C       -3.6991955      8.2308445     -2.3238646
X       -3.8973302      7.7410232     -0.8835347
X       -4.9557315      5.9113817      0.0497154
X       -5.6193043      3.1384206     -0.9015730
P       -0.2335936      7.4328119      0.2513781
O       -0.1145369      6.3739057      1.4373004
C       -1.0006245      6.3694173      2.5643162
X       -0.5455814      5.3689382      3.6233929
X        0.8795100      3.4941111      3.7384157
X        2.6729778      2.8228536      1.8993131
X        4.3506974      1.6513852      2.6023282
P        1.4538424      7.8533755      5.6419339
O        1.8169685      7.3139217      7.0729166
C        1.3967834      8.0294548      8.2382144
X        1.6199893      7.1595592      9.4677831
X        1.6333355      4.8414259      9.9524945
X        2.3906905      3.0639746      8.1764801
X        2.5359280      0.7893810      9.0432555
P        5.2793635      8.1569620     10.2723954
O        5.9460207      7.1105872     11.2331282
C        7.2983441      7.1987577     11.7410657
X        8.3329694      7.5555124     10.6649403
X        8.7349381      9.4887374      9.3427616
X        8.1143413     12.4001615      9.7590152
P       11.3761705      6.3974474     12.6768153
O       12.3016425      5.4466064     11.8076975
C       12.7089960      4.1129899     12.1487655
X       13.8429479      3.6280169     11.2206764
X       16.1861264      3.5383021     11.2586989
X       18.1697054      3.7297795     13.4993097
P       13.0202112     -0.0380180     11.4001981
O       13.9775854     -0.8750082     10.4191573
C       13.6949719     -2.2230254     10.0724490
X       14.6027066     -2.7751051      8.9902187
X       16.3837345     -1.9336555      7.7291327
X       18.1844910     -0.3517690      8.7679877
X       20.2600904     -0.5352857      7.4875556
   142
  Step:         1625 Total energy:    2008.5246946046716      Temperature:   0.57998850649017397     
O       -4.3739709     -4.1077890    -15.6760267
C       -3.2788801     -3.8865364    -14.7684875
X       -1.9829338     -4.4064825    -15.4038990
X       -1.4421789     -6.0835614    -16.9257645
X       -3.1168023     -6.7592672    -18.8331793
X       -1.8753521     -7.3805753    -20.8536394
P       -1.0893031     -1.4648732    -17.5867013
O        0.1712758     -1.7694560    -18.5490996
C        1.4918185     -1.8091714    -17.9959055
X        1.8091411     -0.4720616    -17.3658527
X        0.8424198      1.6345569    -16.9848137
X       -1.6926834      2.0173165    -16.6051733
X       -2.1269419      4.3119432    -15.9574275
P        1.6118487     -1.8042879    -13.8138018
O        2.7827047     -1.2848957    -12.8823317
C        4.0796983     -1.8495263    -12.9686706
X        4.9213404     -1.1567468    -11.9387460
X        4.5747150      0.5863865    -10.3446390
X        2.2710722      1.1383183     -9.2419162
X        2.4090740      1.2200932     -6.8109073
P        4.6993678     -3.9907655     -9.3671157
O        5.4036728     -3.6115877     -7.9987337
C        6.6647010     -4.2648446     -7.6632412
X        6.9452886     -4.0951855     -6.1663255
X        6.4739629     -5.2545144     -4.1779187
X        5.8699132     -7.8233222     -4.0877020
X        6.1409104     -8.7317523     -1.8062381
P       10.7389161     -4.3006226     -6.3966695
O       11.3321982     -4.8143128     -4.9970924
C       12.5816174     -5.5043841     -4.9012851
X       12.9098276     -5.9042586     -3.4694650
X       12.2012430     -5.3012271     -1.3027972
X        9.7178329     -4.0507290     -0.0882320
P       11.4719082     -9.4371790     -3.2834800
O       11.7204184    -10.0690714     -1.8287635
C       10.8346216    -10.9909032     -1.1908556
X       11.2290974    -11.1873922      0.2579766
X       13.1718787    -10.8062854      1.5242010
X       14.8573207     -8.9023011      0.8859795
X       16.2586990     -8.1587137      2.7321936
P        9.0421599     -8.3841029      1.6573761
O        9.0791286     -8.3543883      3.2522604
C        8.8649744     -9.5011715      4.1033399
X        8.6695415     -9.0358800      5.5194694
X        8.9851891     -6.9903527      6.6544538
X        8.9284514     -4.5876559      5.5449532
X        8.3861273     -2.9494649      7.2969220
P        4.9025336     -8.7414851      5.4590738
O        4.3549246     -7.9482426      6.7429332
C        3.9843897     -8.6911210      7.9424280
X        3.2545304     -7.7652325      8.8908231
X        3.0242705     -5.4734914      9.1487654
X        3.2997041     -3.2051419      7.1787870
P       -0.2232691     -8.4879220      7.5293499
O       -1.1593332     -7.1953911      7.7230655
C       -2.1724853     -7.0987512      8.7310085
X       -2.7057461     -5.6909658      8.8813323
X       -2.3131001     -3.6630512      7.8372459
X       -1.4376195     -2.7854165      5.0279232
P       -6.0892883     -6.3187312      7.2067613
O       -6.9838905     -5.0277168      7.3016805
C       -8.4230191     -5.1028194      7.4360876
X       -8.9901078     -3.7439715      7.1952782
X       -8.2526586     -1.5279627      7.6373382
X       -5.6335583     -0.1511423      8.1354290
P       -9.6958045     -4.1949090      3.4422077
O      -11.1866777     -3.8244867      3.1087666
C      -11.6500212     -2.4866149      2.8041121
X      -12.9626474     -2.4739581      2.0414633
X      -13.8568496     -3.7005840      0.2492807
X      -13.3144671     -6.4142154     -0.8707742
P      -15.4317195     -2.5019926      4.9624958
O      -16.5153681     -1.3446668      4.9118018
C      -17.3889448     -1.1947456      3.7827816
X      -18.3424541     -0.0341542      4.0320837
X      -19.4867417      0.7821643      5.8896053
X      -18.7628101      0.4299640      8.8058532
P      -16.4021022      2.7634385      2.3772617
O      -17.1679977      3.3989678      1.1434910
C      -16.5676618      3.6892389     -0.1307502
X      -15.8234494      2.5120046     -0.6807766
X      -16.4581121      0.5836281     -1.9203134
X      -18.8897094      0.0478405     -3.6066332
P      -14.1066090      4.3183014     -3.5328152
O      -13.6388063      3.2482185     -4.6198757
C      -14.4374970      3.0078892     -5.7682933
X      -14.8247371      4.3125212     -6.4717427
X      -14.9706801      6.5634061     -5.8228720
X      -13.4247345      8.2108090     -3.7316230
P      -11.6104486      4.5823109     -8.6061407
O      -11.3258107      6.0184882     -9.1930557
C      -11.0194600      6.2537139    -10.5835599
X      -10.4503854      7.6696838    -10.7417493
X      -10.9265810      9.8217497     -9.9138475
X      -12.1817571     10.3224447     -7.6438560
X      -12.4146097     12.4426861     -7.1075375
P       -6.9017382      6.7789737     -9.8963272
O       -6.2923064      7.7848156     -8.8340676
C       -6.7415508      7.8213785     -7.4878493
X       -6.4941474      6.4855415     -6.7375012
X       -5.6629094      4.3557654     -7.3142397
X       -4.1397815      3.8373585     -9.3766055
X       -2.5417316      2.3913534     -9.0466351
P       -3.3430524      7.5989295     -4.8311372
O       -3.4105548      7.2270091     -3.2842963
C       -3.5933315      8.2724222     -2.3323465
X       -3.9158138      7.7276888     -0.9277445
X       -4.9923685      5.8903104      0.0692365
X       -5.6222427      3.1147770     -0.9028962
P       -0.2326136      7.4156131      0.2614955
O       -0.1492687      6.3630444      1.4559922
C       -1.0372163      6.3421260      2.5699097
X       -0.5126660      5.3963549      3.6495499
X        0.8529387      3.5009226      3.6649308
X        2.6812065      2.8178940      1.9132212
X        4.3799341      1.6242591      2.6250068
P        1.4493167      7.8970122      5.6477841
O        1.7931173      7.3237650      7.1036900
C        1.3788722      8.0272018      8.2854647
X        1.5431871      7.1730829      9.5257054
X        1.7367277      4.8831979      9.9602003
X        2.3959686      3.0721021      8.1801839
X        2.5093321      0.7900105      9.0559361
P        5.2700115      8.1432747     10.2783983
O        5.9758633      7.0972957     11.2781464
C        7.3094874      7.2537311     11.7737713
X        8.2840162      7.5690671     10.6759129
X        8.7789270      9.5335323      9.4379489
X        8.1130328     12.4216184      9.7635827
P       11.3958789      6.3684590     12.7021291
O       12.2977645      5.3841419     11.7971431
C       12.7245679      4.0932601     12.2247778
X       13.7857098      3.6210454     11.2410805
X       16.1544192      3.6077317     11.2437114
X       18.1676471      3.7293065     13.4763324
P       13.0377581     -0.0619128     11.4300365
O       13.9659537     -0.9231260     10.4418606
C       13.6634899     -2.2913178     10.0380246
X       14.5842732     -2.7882843      8.9256264
X       16.4077586     -1.9730367      7.7038879
X       18.2003986     -0.3415061      8.7283791
X       20.2751879     -0.5186674      7.4943285
   142
  Step:         1650 Total energy:    2010.6951902198041      Temperature:   0.57249421057189620     
O       -4.3662226     -4.1962437    -15.6747446
C       -3.3047752     -3.8686439    -14.8328511
X       -1.9968014     -4.4454313    -15.3566325
X       -1.4543021     -6.0913171    -16.9219646
X       -3.1313917     -6.7500953    -18.8359501
X       -1.8729998     -7.3767831    -20.8362709
P       -1.1195949     -1.4473032    -17.6329017
O        0.1226353     -1.8038922    -18.5045748
C        1.5069513     -1.7290481    -18.0867859
X        1.9034588     -0.4758484    -17.3449200
X        0.9027859      1.6114523    -16.9406106
X       -1.6912657      1.9795833    -16.5909175
X       -2.0918047      4.3235330    -15.9674724
P        1.6131947     -1.8163866    -13.8214543
O        2.7466468     -1.2800439    -12.8465482
C        4.1065507     -1.7459829    -12.9922753
X        5.0135277     -1.1494070    -11.9442535
X        4.5730050      0.5015951    -10.3612418
X        2.2694303      1.1095123     -9.2506243
X        2.4259256      1.2321496     -6.7994076
P        4.6601325     -3.9653480     -9.3374645
O        5.4089559     -3.6170326     -7.9740759
C        6.6057362     -4.2837804     -7.6382885
X        6.9704758     -4.1128571     -6.1850208
X        6.4336518     -5.2402373     -4.2140008
X        5.8728849     -7.7812928     -4.0846615
X        6.1145986     -8.7266762     -1.8421242
P       10.6957077     -4.2807186     -6.3675037
O       11.2939830     -4.8520579     -5.0138444
C       12.5423077     -5.5375243     -4.8947504
X       12.9119318     -5.9073926     -3.4575960
X       12.2118921     -5.3038408     -1.2772695
X        9.7012472     -4.0587288     -0.0636018
P       11.4863309     -9.4810303     -3.3572629
O       11.6957088    -10.0349029     -1.8718099
C       10.8434621    -10.9888980     -1.2444932
X       11.2127123    -11.1107878      0.2342114
X       13.1324261    -10.7752208      1.5314388
X       14.8820463     -8.9342755      0.8825030
X       16.2543640     -8.1862894      2.7420193
P        9.0636610     -8.3928167      1.6135421
O        9.1371201     -8.4139545      3.2163755
C        8.8790592     -9.5151379      4.1109025
X        8.6720703     -8.9921500      5.5654705
X        9.0775399     -6.9466010      6.6140838
X        8.8803661     -4.5696042      5.5499269
X        8.4054302     -2.9333690      7.3276678
P        4.8616796     -8.7042051      5.4751463
O        4.3104164     -7.9975628      6.7597598
C        4.0305686     -8.6967660      7.9718672
X        3.2720163     -7.7804626      8.8988521
X        2.9667882     -5.4749365      9.1206481
X        3.3007577     -3.1848375      7.1788216
P       -0.2408936     -8.4732580      7.5173605
O       -1.1754406     -7.2148856      7.7451123
C       -2.0961926     -7.0945130      8.8396382
X       -2.6811772     -5.6534233      8.8878680
X       -2.3224131     -3.5722700      7.8440605
X       -1.4416015     -2.7657951      5.0102054
P       -6.0702293     -6.3209406      7.1987826
O       -6.9890556     -5.0440180      7.2033764
C       -8.4284703     -5.1667207      7.4092989
X       -8.9758232     -3.8078503      7.1799710
X       -8.1921166     -1.6095213      7.6019851
X       -5.6426693     -0.1264460      8.1113470
P       -9.7260510     -4.1998311      3.4917681
O      -11.2390461     -3.8090061      3.1021490
C      -11.6421191     -2.4490148      2.8227578
X      -12.9211494     -2.4260340      2.0150361
X      -13.8665221     -3.6287898      0.2188258
X      -13.3276428     -6.4023556     -0.8792358
P      -15.4123852     -2.5237298      4.9689869
O      -16.4980872     -1.3385827      4.9546919
C      -17.3618264     -1.1659452      3.8162117
X      -18.4183906     -0.0793246      4.0382053
X      -19.4604884      0.8075874      5.9261282
X      -18.7435778      0.4084827      8.8174041
P      -16.3920707      2.7755932      2.3756678
O      -17.1201749      3.4268056      1.1146086
C      -16.4803450      3.7091933     -0.1755272
X      -15.8211759      2.4794746     -0.7155872
X      -16.5578616      0.5760604     -1.8629915
X      -18.9144816      0.0531611     -3.6321502
P      -14.1332683      4.3383241     -3.5548457
O      -13.7301906      3.2703022     -4.6745164
C      -14.5593623      3.0119602     -5.7976994
X      -14.8662579      4.3168024     -6.4610818
X      -14.9132088      6.5373884     -5.7900208
X      -13.4015494      8.2114822     -3.7136453
P      -11.6363784      4.5859295     -8.6357797
O      -11.3209171      6.0371017     -9.1995458
C      -10.9768538      6.2496273    -10.5630772
X      -10.4341855      7.6528477    -10.7655956
X      -10.9384055      9.7491121     -9.8982076
X      -12.1479197     10.3422208     -7.6391320
X      -12.4197572     12.4186254     -7.1010515
P       -6.8700711      6.7389956     -9.8461539
O       -6.2596536      7.7801759     -8.8072831
C       -6.7702994      7.7590544     -7.4790510
X       -6.4693737      6.4768835     -6.7180988
X       -5.6902422      4.3395652     -7.2628366
X       -4.1618869      3.8214840     -9.3362611
X       -2.5672609      2.3945782     -9.0623298
P       -3.3207852      7.5546962     -4.8718961
O       -3.4732971      7.2557837     -3.2998610
C       -3.5867910      8.2693648     -2.3028302
X       -3.8470266      7.7412198     -0.9174624
X       -4.9952986      5.8960804      0.0015903
X       -5.6269624      3.0997279     -0.9075773
P       -0.2778714      7.3824976      0.2639111
O       -0.1504707      6.3428904      1.4736818
C       -1.0392538      6.3409346      2.5756356
X       -0.5420326      5.3748763      3.6412694
X        0.8113980      3.4403249      3.6495502
X        2.7191945      2.8149535      1.9252603
X        4.3826367      1.5918629      2.6388461
P        1.4720699      7.9460290      5.6755494
O        1.7315192      7.3654662      7.1401572
C        1.2972497      8.0155950      8.3427734
X        1.6457604      7.1922858      9.5896973
X        1.7001440      4.8863188     10.0005097
X        2.4154304      3.0920644      8.1857754
X        2.4830729      0.7835577      9.0639247
P        5.2278513      8.1287332     10.2947163
O        5.9607753      7.0715292     11.2403006
C        7.2399990      7.3283138     11.8125910
X        8.2981709      7.5954999     10.7763515
X        8.8342984      9.4970214      9.4714260
X        8.1190740     12.4442430      9.7670586
P       11.3871827      6.3341534     12.6983548
O       12.3023565      5.3766435     11.8449046
C       12.7422246      4.0938845     12.2390333
X       13.7892750      3.6306173     11.2871680
X       16.1191971      3.6823714     11.2813254
X       18.1635880      3.7256905     13.4541113
P       13.0646928     -0.1401985     11.4409111
O       13.9596616     -0.9682948     10.4510348
C       13.6357471     -2.3004044     10.0028303
X       14.5496325     -2.7843231      8.8833336
X       16.4118556     -2.0019794      7.7225358
X       18.1824782     -0.3390190      8.7009611
X       20.3348371     -0.5032101      7.4796083
   142
  Step:         1675 Total energy:    2012.3857256688009      Temperature:   0.58535387162295627     
O       -4.3933035     -4.2973338    -15.6747643
C       -3.3266098     -3.8681831    -14.8238152
X       -2.0021763     -4.4171188    -15.3630280
X       -1.4964677     -6.1291843    -16.8957928
X       -3.1348318     -6.7383640    -18.8346516
X       -1.8727997     -7.3808924    -20.8281181
P       -1.1706617     -1.4489054    -17.6208076
O        0.1428866     -1.7756210    -18.5309818
C        1.5591285     -1.7340403    -18.1416752
X        1.9532827     -0.4636577    -17.3721938
X        0.8813245      1.5534999    -16.8934579
X       -1.6748924      1.9586667    -16.5728832
X       -2.0621336      4.3248854    -15.9851735
P        1.5925261     -1.8425515    -13.8061464
O        2.7933206     -1.3243941    -12.8880965
C        4.1687455     -1.6724449    -13.0834848
X        4.9607017     -1.1213258    -11.8803356
X        4.6547158      0.5073627    -10.2566299
X        2.2733341      1.0752725     -9.2511619
X        2.4460384      1.2494689     -6.7998688
P        4.6117601     -3.9273823     -9.3300148
O        5.4106350     -3.6467379     -7.9697537
C        6.6092643     -4.2855456     -7.6759849
X        6.9056106     -4.0825153     -6.2000445
X        6.3801464     -5.1803293     -4.1722301
X        5.8671192     -7.7550717     -4.0903724
X        6.0924514     -8.7270592     -1.8730473
P       10.6916631     -4.2754347     -6.3350278
O       11.2559933     -4.8927395     -4.9582728
C       12.5074198     -5.5742399     -4.8774568
X       12.8865115     -5.9258161     -3.4637295
X       12.2045719     -5.3091232     -1.3112941
X        9.6860159     -4.0677423     -0.0439735
P       11.5154971     -9.5064653     -3.4181657
O       11.7038691    -10.0219343     -1.9439998
C       10.8562549    -10.9501718     -1.2950569
X       11.2369971    -11.1488840      0.1736357
X       13.0881903    -10.7363134      1.5358466
X       14.8943204     -8.9631506      0.8505282
X       16.2578905     -8.2073822      2.7766227
P        9.0782121     -8.4064246      1.6307173
O        9.1437153     -8.3896639      3.2340857
C        8.8494030     -9.4714588      4.0713692
X        8.7076902     -8.9401695      5.5056890
X        9.1462487     -6.9433359      6.6194161
X        8.8341120     -4.5442670      5.5781778
X        8.4197277     -2.9184799      7.3435457
P        4.8469680     -8.6927302      5.4608419
O        4.2903129     -7.9982301      6.7970934
C        4.0649652     -8.6980393      8.0102475
X        3.2425680     -7.7897769      8.9325332
X        2.9513567     -5.4493847      9.0847225
X        3.2955124     -3.1659020      7.1844115
P       -0.2488254     -8.4738386      7.5117845
O       -1.1978505     -7.2033372      7.7375669
C       -2.0294696     -6.9886312      8.8794483
X       -2.6539341     -5.6028476      8.9401511
X       -2.3664157     -3.6038087      7.7706713
X       -1.4449737     -2.7451086      5.0020811
P       -6.0104416     -6.3551748      7.1887048
O       -6.9899505     -5.1055406      7.1058329
C       -8.3797608     -5.1933592      7.3706090
X       -8.9878731     -3.8279753      7.2164478
X       -8.2136330     -1.6314957      7.5853955
X       -5.6536709     -0.1049266      8.0869317
P       -9.7731523     -4.1968788      3.5055225
O      -11.2581245     -3.8002769      3.0921561
C      -11.6342805     -2.4583512      2.8164499
X      -12.9350795     -2.3760255      2.0143808
X      -13.7850729     -3.6178287      0.2284054
X      -13.3396408     -6.3761896     -0.8841008
P      -15.3878534     -2.5244921      4.9931026
O      -16.4712031     -1.3447902      4.9035023
C      -17.4048154     -1.2226302      3.8323234
X      -18.4045533     -0.0793737      4.0321155
X      -19.4729750      0.8040334      5.9347489
X      -18.7238535      0.3871054      8.8262425
P      -16.3676802      2.7819510      2.3795119
O      -17.1084634      3.4243173      1.1380747
C      -16.4486241      3.7280198     -0.0986593
X      -15.8487228      2.4671796     -0.7214675
X      -16.6083520      0.5372687     -1.7930271
X      -18.9394869      0.0589615     -3.6600098
P      -14.1532429      4.3289472     -3.5797405
O      -13.7671185      3.3147177     -4.7234711
C      -14.6133733      2.9828583     -5.8472148
X      -14.8953960      4.3315603     -6.5246016
X      -14.8594186      6.5834659     -5.8126815
X      -13.3733699      8.2139860     -3.6901974
P      -11.6816685      4.5611266     -8.6351284
O      -11.4017660      6.0622177     -9.1972753
C      -10.9926978      6.2311241    -10.5558790
X      -10.4283953      7.6229127    -10.7926046
X      -10.9091522      9.7662427     -9.9312135
X      -12.1100391     10.3214637     -7.6197585
X      -12.4299369     12.4219410     -7.0963802
P       -6.8015078      6.7013364     -9.8197498
O       -6.2457840      7.7297370     -8.7452749
C       -6.7446320      7.7821718     -7.4013909
X       -6.4873148      6.4827231     -6.6949437
X       -5.6750106      4.3368846     -7.1696974
X       -4.2127802      3.8133811     -9.3105527
X       -2.5679363      2.3802080     -9.0721698
P       -3.3108753      7.5227557     -4.8881559
O       -3.5215754      7.2570349     -3.3253129
C       -3.5714823      8.2900891     -2.3163128
X       -3.8697172      7.7607388     -0.9312990
X       -4.9268372      5.8561033     -0.0389597
X       -5.6334090      3.0925891     -0.9154394
P       -0.3087203      7.3395412      0.2634066
O       -0.1482224      6.3272592      1.4630536
C       -1.0141567      6.3168535      2.5950671
X       -0.5571350      5.3275873      3.6294549
X        0.8294120      3.4316138      3.6346775
X        2.7575829      2.8227642      1.9373135
X        4.3695753      1.5561658      2.6451973
P        1.4805348      7.9542298      5.7122213
O        1.6735387      7.4214050      7.2037887
C        1.3639761      8.0806111      8.4209241
X        1.6263592      7.1097780      9.5805378
X        1.6802361      4.8095911     10.0132936
X        2.4333944      3.1018261      8.2110104
X        2.4451018      0.8040513      9.0586980
P        5.1997477      8.1396563     10.3007135
O        5.9540672      7.0467786     11.1818976
C        7.1940713      7.3267792     11.8743820
X        8.2991632      7.7158123     10.8539737
X        8.8352016      9.5492230      9.5505948
X        8.1368485     12.4411491      9.7681822
P       11.3367796      6.3219980     12.7209011
O       12.3232602      5.4221858     11.8324741
C       12.6960255      4.0788748     12.2588257
X       13.7861478      3.5985617     11.3103254
X       16.1414092      3.6925367     11.1946033
X       18.1630541      3.7220839     13.4428686
P       13.0755754     -0.2163184     11.4618284
O       14.0277306     -0.9986387     10.4015289
C       13.5930027     -2.2733672      9.9553560
X       14.5110566     -2.8123353      8.8780876
X       16.3938333     -2.0032252      7.7165408
X       18.2018381     -0.3435274      8.6568813
X       20.3605131     -0.4862919      7.4743641
   142
  Step:         1700 Total energy:    2014.6693214893096      Temperature:   0.57236372880825415     
O       -4.4189666     -4.3749148    -15.6441641
C       -3.3261636     -3.8859029    -14.8123956
X       -2.0488932     -4.3955916    -15.3953832
X       -1.4970318     -6.1318703    -16.8533314
X       -3.1321835     -6.7230969    -18.8232135
X       -1.8692648     -7.3842963    -20.8257213
P       -1.1303177     -1.4700167    -17.6289271
O        0.1617605     -1.6709514    -18.5123031
C        1.4854891     -1.7763878    -18.1265390
X        1.9177775     -0.5050045    -17.4133008
X        0.9216830      1.5486743    -16.8650126
X       -1.6621745      1.9676736    -16.5431053
X       -2.0366809      4.3013756    -16.0118016
P        1.5904254     -1.8744399    -13.8124444
O        2.7929779     -1.3438703    -12.9221705
C        4.1726286     -1.6761465    -13.0231594
X        4.9608226     -1.0567145    -11.8427475
X        4.6611221      0.5278817    -10.1786231
X        2.2895508      1.0454316     -9.2285759
X        2.4573162      1.2684700     -6.8184497
P        4.5435156     -3.9219751     -9.3565944
O        5.3625062     -3.6587798     -8.0152050
C        6.6122971     -4.2961131     -7.6526723
X        6.8714939     -4.0550713     -6.1635382
X        6.3062866     -5.1484930     -4.1740870
X        5.8538512     -7.7176177     -4.1231343
X        6.0765911     -8.7298960     -1.8734378
P       10.6877469     -4.2859697     -6.2718391
O       11.2265851     -4.9110672     -4.9343020
C       12.4939109     -5.5713738     -4.9106737
X       12.8639850     -5.9299780     -3.4696944
X       12.1571609     -5.3078046     -1.3349172
X        9.6779204     -4.0782805     -0.0337960
P       11.5438162     -9.4859751     -3.4763995
O       11.7531535    -10.0844869     -1.9753833
C       10.8439737    -10.9953613     -1.3261038
X       11.2090455    -11.1907827      0.1417755
X       13.0819069    -10.7388494      1.4800479
X       14.9245754     -8.9692653      0.8466368
X       16.2383647     -8.2388505      2.7844568
P        9.0725488     -8.4205750      1.6527196
O        9.1557864     -8.2863279      3.2295416
C        8.8400327     -9.3897744      4.0462617
X        8.6991721     -8.9253144      5.4711848
X        9.1412078     -6.9357899      6.6131848
X        8.8009249     -4.5348162      5.5940195
X        8.4253115     -2.8930660      7.3690610
P        4.8679393     -8.6831588      5.4660784
O        4.3104950     -8.0193563      6.8251530
C        3.9911604     -8.6920713      8.0251643
X        3.2210844     -7.7722997      8.9499594
X        2.9428317     -5.4345751      9.0912880
X        3.2910648     -3.1485158      7.1893408
P       -0.2517995     -8.4549734      7.5184991
O       -1.2112802     -7.1711921      7.7256296
C       -1.9766469     -6.9575474      8.9113188
X       -2.6442935     -5.5966333      8.9762274
X       -2.4435591     -3.5640369      7.7711445
X       -1.4449761     -2.7193246      4.9892620
P       -5.9230942     -6.4240864      7.1826196
O       -6.9343402     -5.1723253      7.0286163
C       -8.2995044     -5.2004045      7.3917722
X       -8.9734166     -3.7974283      7.2309718
X       -8.2639719     -1.6068320      7.6631282
X       -5.6751818     -0.0864113      8.0604160
P       -9.8125949     -4.2048952      3.4884424
O      -11.3034500     -3.7626127      3.0998703
C      -11.6236080     -2.4160766      2.8665130
X      -12.9206610     -2.3564570      2.0241705
X      -13.8045597     -3.5943277      0.2301762
X      -13.3471829     -6.3541414     -0.8932056
P      -15.3702061     -2.4943233      4.9994286
O      -16.4858597     -1.3391061      4.8599921
C      -17.4400287     -1.2697838      3.8061373
X      -18.3408736     -0.0766846      4.0650792
X      -19.4469605      0.7781104      5.9540927
X      -18.7066118      0.3655073      8.8299454
P      -16.3349536      2.7569905      2.4121771
O      -17.1314439      3.4138534      1.1749185
C      -16.5263672      3.7057791     -0.0574321
X      -15.8660254      2.4508584     -0.6741533
X      -16.6627475      0.5727403     -1.8052044
X      -18.9569686      0.0650494     -3.6870935
P      -14.1769427      4.2966815     -3.6033799
O      -13.7674088      3.2652279     -4.7596595
C      -14.5935246      3.0736216     -5.9203654
X      -14.9219433      4.3867615     -6.5849148
X      -14.7779065      6.6207035     -5.8721564
X      -13.3486679      8.2096821     -3.6726607
P      -11.7386950      4.5701312     -8.6379828
O      -11.4882706      5.9888448     -9.2105199
C      -11.0185370      6.2210835    -10.5428657
X      -10.4231195      7.6203876    -10.7326664
X      -10.9118865      9.7601252     -9.9044657
X      -12.0617192     10.2929992     -7.6170900
X      -12.4379914     12.4132673     -7.1010772
P       -6.7679692      6.6740315     -9.7938861
O       -6.2050068      7.6898402     -8.7168963
C       -6.7332947      7.7895002     -7.3621359
X       -6.5226231      6.4782245     -6.5928131
X       -5.6655919      4.3652051     -7.1547559
X       -4.2480555      3.7964154     -9.2841929
X       -2.5885167      2.3791361     -9.0822465
P       -3.3249090      7.4985749     -4.8669413
O       -3.4992058      7.2449244     -3.3170931
C       -3.5905018      8.3256380     -2.3799955
X       -3.9043431      7.7751538     -0.9811609
X       -4.9245880      5.8684962     -0.0056897
X       -5.6315010      3.0825699     -0.9273676
P       -0.2934841      7.3034764      0.2357549
O       -0.1519233      6.2710546      1.4486356
C       -1.0518183      6.2797900      2.6031781
X       -0.5058793      5.3326153      3.6685682
X        0.8955164      3.4424140      3.6672868
X        2.7787276      2.8411427      1.9370466
X        4.3642495      1.5110216      2.6548791
P        1.4490672      7.9309579      5.7415452
O        1.6890053      7.3704078      7.2283741
C        1.3866996      8.0286729      8.4635872
X        1.5663696      7.1309563      9.6781709
X        1.6168459      4.8045687     10.0560586
X        2.4540144      3.1022621      8.2191810
X        2.4068108      0.8199893      9.0440485
P        5.1943885      8.1459850     10.3085519
O        5.9742087      7.0549864     11.1448144
C        7.1453160      7.3486994     11.9055705
X        8.2698156      7.7136759     10.9243015
X        8.8829569      9.5135568      9.5797324
X        8.1529632     12.4576770      9.7754802
P       11.2988471      6.3166302     12.7596079
O       12.2816073      5.4570060     11.8588434
C       12.7181077      4.1168185     12.2267949
X       13.8100634      3.5625067     11.2895084
X       16.1307466      3.6104756     11.2361381
X       18.1562454      3.7225674     13.4259928
P       13.1134843     -0.2564724     11.4711577
O       14.0015343     -1.0430853     10.4418174
C       13.5633774     -2.2592752      9.8900618
X       14.5210641     -2.8242739      8.8444172
X       16.4055382     -1.9908201      7.7078614
X       18.2295406     -0.3506284      8.6075717
X       20.3609319     -0.4719277      7.4756408
   142
  Step:         1725 Total energy:    2019.0112763419095      Temperature:   0.61183463017914641     
O       -4.4540410     -4.4186779    -15.5891140
C       -3.3467165     -3.8617830    -14.8502317
X       -2.0657381     -4.4288694    -15.3821628
X       -1.4535694     -6.1225884    -16.8768039
X       -3.1149921     -6.7207385    -18.8191925
X       -1.8709949     -7.3840700    -20.8190193
P       -1.1118696     -1.4426455    -17.6158302
O        0.1305971     -1.6988400    -18.6297496
C        1.4544179     -1.7872005    -18.1205048
X        1.8991520     -0.5455664    -17.3257055
X        0.9233916      1.5253541    -16.9116415
X       -1.6259469      1.9487415    -16.5203067
X       -2.0219167      4.3080391    -16.0300478
P        1.6186231     -1.9263411    -13.8503370
O        2.7338341     -1.2789257    -12.8636393
C        4.1266157     -1.6587179    -12.9249100
X        5.0401527     -1.0857767    -11.8549060
X        4.6807919      0.5646562    -10.2050952
X        2.2891061      1.0252065     -9.2227393
X        2.4582852      1.2948734     -6.8013391
P        4.4964678     -3.9393405     -9.3974371
O        5.2881082     -3.6496773     -8.0444609
C        6.5519993     -4.2765780     -7.6320059
X        6.8568566     -4.0318713     -6.1640160
X        6.2454492     -5.0788574     -4.1683396
X        5.8456322     -7.7025373     -4.1314961
X        6.0640898     -8.7090009     -1.8986849
P       10.6429169     -4.2744957     -6.2320760
O       11.2212594     -4.9309352     -4.8941202
C       12.5080682     -5.5470853     -4.9189909
X       12.8789392     -5.9235620     -3.4914300
X       12.1494028     -5.3263535     -1.3429247
X        9.6697665     -4.0900390     -0.0298140
P       11.5777045     -9.4849862     -3.4616338
O       11.7579258    -10.1746904     -2.0520575
C       10.8303133    -11.0410407     -1.3721432
X       11.1932272    -11.1844664      0.1126381
X       13.1365016    -10.7855975      1.3752034
X       14.9453371     -8.9676303      0.8443172
X       16.2202235     -8.2712454      2.7840087
P        9.0455796     -8.4000475      1.6327879
O        9.1938543     -8.2337191      3.1987506
C        8.8472418     -9.3550595      4.0587483
X        8.6794169     -8.9165683      5.5002999
X        9.0839757     -6.8975687      6.6472074
X        8.7719467     -4.5288836      5.6008598
X        8.4311040     -2.8645062      7.3930203
P        4.8895672     -8.6796436      5.5045536
O        4.3537461     -8.0005168      6.8208732
C        3.9013029     -8.7031315      7.9895594
X        3.1899772     -7.7372672      8.9181957
X        2.9442157     -5.4131176      9.1459711
X        3.2894507     -3.1328394      7.1905438
P       -0.2740074     -8.4101471      7.5242056
O       -1.1957979     -7.1585577      7.7367522
C       -1.9602625     -6.9285975      8.9354676
X       -2.6341187     -5.5554420      8.9264802
X       -2.4603241     -3.5307848      7.7431286
X       -1.4517500     -2.6932356      4.9939559
P       -5.8766521     -6.4973591      7.1725005
O       -6.8487270     -5.2201219      6.9987957
C       -8.2011025     -5.1818235      7.4268821
X       -8.8648481     -3.7787127      7.2239116
X       -8.3163839     -1.5722562      7.7090831
X       -5.7078709     -0.0698040      8.0352262
P       -9.8332778     -4.2250205      3.4761129
O      -11.3225710     -3.7415096      3.1206740
C      -11.6640956     -2.3912365      2.8551598
X      -12.9284090     -2.3419279      2.0351326
X      -13.8351487     -3.5931472      0.2691241
X      -13.3522313     -6.3355044     -0.9146046
P      -15.3655193     -2.4326953      4.9735885
O      -16.5108311     -1.3365923      4.9213511
C      -17.3775868     -1.2183144      3.7788002
X      -18.3482752     -0.0946789      4.0521126
X      -19.3910624      0.7946210      5.9556493
X      -18.6909143      0.3422867      8.8384018
P      -16.3053905      2.7260001      2.4458568
O      -17.1210870      3.4122451      1.2462898
C      -16.6238617      3.6776195     -0.0385897
X      -15.9307824      2.4551208     -0.6460411
X      -16.6515106      0.6035850     -1.8763974
X      -18.9766574      0.0757676     -3.7115962
P      -14.1954526      4.2386594     -3.6150925
O      -13.8285418      3.2209650     -4.7903484
C      -14.6095950      3.1061467     -5.9610598
X      -14.8653493      4.4486158     -6.5852074
X      -14.7556484      6.7062338     -5.9324196
X      -13.3320363      8.2002802     -3.6653147
P      -11.7992729      4.5436381     -8.6566903
O      -11.5341113      6.0423903     -9.2283258
C      -11.0161191      6.2070979    -10.5586789
X      -10.4079645      7.5698407    -10.6594505
X      -10.8672215      9.7572194     -9.9097918
X      -12.0257443     10.3022805     -7.5920769
X      -12.4376184     12.3729968     -7.1239616
P       -6.7807279      6.6656791     -9.7530208
O       -6.1760260      7.6510533     -8.6460632
C       -6.7709327      7.7544077     -7.3730445
X       -6.5285785      6.4899396     -6.5817391
X       -5.7202931      4.3512869     -7.1251359
X       -4.2649855      3.7813985     -9.2693338
X       -2.6338765      2.3835777     -9.0830872
P       -3.3355318      7.4864501     -4.8520922
O       -3.4165144      7.2237321     -3.2764633
C       -3.6853422      8.2835491     -2.3645542
X       -3.9048542      7.7540653     -0.9725027
X       -4.9977769      5.9057362     -0.1070474
X       -5.6238000      3.0810711     -0.9347980
P       -0.2652892      7.2570303      0.2089042
O       -0.1964250      6.2459941      1.4311622
C       -1.0182954      6.2523608      2.6030277
X       -0.4639476      5.3381817      3.6763153
X        0.9936150      3.4995711      3.7606512
X        2.8034154      2.8410223      1.9401218
X        4.3535961      1.4811963      2.6633189
P        1.4082221      7.8852907      5.7991937
O        1.7256079      7.2879655      7.2561981
C        1.3092443      7.9634240      8.4717677
X        1.5521824      7.1529196      9.7292259
X        1.5987962      4.8338175     10.0428007
X        2.4607547      3.1459596      8.2283802
X        2.3728688      0.8065656      9.0344578
P        5.1882168      8.1656558     10.3027272
O        5.9717888      7.0492964     11.1672720
C        7.1506031      7.3701449     11.8788125
X        8.2635656      7.6682476     10.9188343
X        8.8588653      9.5405585      9.6563984
X        8.1707725     12.4666712      9.7846119
P       11.2880685      6.3071576     12.8250957
O       12.2639861      5.4236829     11.8834553
C       12.7046857      4.1157039     12.2104374
X       13.7510876      3.5823166     11.2338068
X       16.1016282      3.4560922     11.1977965
X       18.1593110      3.7241474     13.4195000
P       13.1359310     -0.2348412     11.5060852
O       14.0065217     -1.1103919     10.4634811
C       13.5224088     -2.3017286      9.8085154
X       14.5509819     -2.8094457      8.7981966
X       16.4407205     -2.0370137      7.6388686
X       18.2154772     -0.3452732      8.5870657
X       20.3929971     -0.4684106      7.4524394
   142
  Step:         1750 Total energy:    2024.6693174839670      Temperature:   0.60373718835882162     
O       -4.5087069     -4.4314370    -15.5474128
C       -3.3858565     -3.8772632    -14.8617918
X       -2.0239113     -4.4179227    -15.3728171
X       -1.4429139     -6.1032544    -16.9081492
X       -3.0931243     -6.7226593    -18.8191953
X       -1.8741945     -7.3792132    -20.8229109
P       -1.0999378     -1.3957115    -17.6220513
O        0.0914492     -1.7741589    -18.5632542
C        1.4633494     -1.8366173    -18.1471176
X        1.8614111     -0.5935818    -17.3565177
X        0.9724246      1.5415594    -16.9160451
X       -1.5919815      1.9270438    -16.5020303
X       -2.0171501      4.3220409    -16.0401885
P        1.6874610     -1.9718282    -13.8251152
O        2.7210160     -1.2572099    -12.8529181
C        4.0896136     -1.6562739    -12.9583891
X        4.9355507     -1.1019654    -11.8546959
X        4.6666721      0.5815183    -10.2243975
X        2.3025594      1.0049431     -9.2315098
X        2.4535188      1.3223781     -6.7690567
P        4.4874697     -3.9547667     -9.4172934
O        5.2098837     -3.6665571     -8.0156874
C        6.4753146     -4.2086900     -7.6681291
X        6.7465267     -4.0176754     -6.1856425
X        6.2126523     -5.1081194     -4.1736406
X        5.8424535     -7.6824710     -4.1330516
X        6.0514589     -8.6767207     -1.9339075
P       10.5933869     -4.2577381     -6.2080239
O       11.2114522     -4.9319472     -4.9035722
C       12.5008654     -5.5230518     -4.8634272
X       12.9024971     -5.9129888     -3.4688179
X       12.1581106     -5.3401480     -1.3272784
X        9.6674161     -4.1009582     -0.0293947
P       11.6036166     -9.5206697     -3.4654640
O       11.7929917    -10.2308260     -2.0446654
C       10.7909000    -11.0103539     -1.3848428
X       11.2176806    -11.1703791      0.0563365
X       13.1881957    -10.8571094      1.3051749
X       14.9466316     -8.9776556      0.8091241
X       16.2235476     -8.2971394      2.8163077
P        9.0066304     -8.3617223      1.5755757
O        9.2171453     -8.2987342      3.1621729
C        8.8731071     -9.3543458      4.0845104
X        8.7119556     -8.8679830      5.4945220
X        8.9932430     -6.8685897      6.7158388
X        8.7487654     -4.5049180      5.6269307
X        8.4371591     -2.8480553      7.3908579
P        4.9182077     -8.6980388      5.5303511
O        4.3871363     -7.9119400      6.8174727
C        3.8671103     -8.6610338      7.9677698
X        3.1423352     -7.7048098      8.9009477
X        2.9735298     -5.4062611      9.1242863
X        3.2880595     -3.1259872      7.1967358
P       -0.2907944     -8.3854052      7.5255608
O       -1.2087183     -7.0983998      7.7316611
C       -1.9492411     -6.8681638      8.9440754
X       -2.6427545     -5.5301439      8.9064938
X       -2.4382750     -3.5116043      7.7738344
X       -1.4532647     -2.6641157      4.9908859
P       -5.8614403     -6.5597740      7.1517037
O       -6.7338506     -5.2441466      6.9928930
C       -8.0954127     -5.1527437      7.4554362
X       -8.7614931     -3.8111127      7.2091830
X       -8.3358686     -1.5545026      7.6411713
X       -5.7458194     -0.0553673      8.0144925
P       -9.8449506     -4.2478106      3.4889553
O      -11.3111564     -3.7614937      3.1389357
C      -11.6797348     -2.3830093      2.8067084
X      -12.9722649     -2.3222499      2.0364169
X      -13.8430283     -3.6097689      0.2816820
X      -13.3581304     -6.3109643     -0.9356154
P      -15.3600746     -2.3936588      4.9829027
O      -16.5090883     -1.3014993      4.9637104
C      -17.3529674     -1.1669642      3.7985336
X      -18.3591340     -0.0667432      4.0002603
X      -19.3597601      0.7993398      5.9395892
X      -18.6785497      0.3207999      8.8485199
P      -16.2802989      2.6915254      2.4703929
O      -17.1301321      3.4341182      1.3203886
C      -16.6892311      3.6799426     -0.0465853
X      -16.0122846      2.4812405     -0.6813034
X      -16.6369167      0.5855553     -1.9413410
X      -18.9967893      0.0866930     -3.7311961
P      -14.2225475      4.1774798     -3.5956228
O      -13.8849283      3.1765841     -4.7642875
C      -14.6934139      3.0861631     -5.9479260
X      -14.8980177      4.4785707     -6.5961055
X      -14.7808137      6.7419907     -5.9241024
X      -13.3230669      8.1892230     -3.6618830
P      -11.8215259      4.5552675     -8.7242408
O      -11.5232039      5.9997050     -9.2196529
C      -10.9837039      6.2229710    -10.5103916
X      -10.3671725      7.5806055    -10.6801414
X      -10.8049991      9.7150012     -9.8368244
X      -11.9988450     10.2846502     -7.5705569
X      -12.4353292     12.3821015     -7.1467651
P       -6.7936625      6.6468695     -9.7130474
O       -6.1948280      7.6546668     -8.6217554
C       -6.7605745      7.7427267     -7.3471807
X       -6.5271078      6.4375009     -6.6102539
X       -5.7630812      4.2961106     -7.1452257
X       -4.3145500      3.8050791     -9.2635774
X       -2.6637268      2.3739887     -9.0765672
P       -3.3197366      7.4978647     -4.8240277
O       -3.3767062      7.1866320     -3.2669321
C       -3.6339256      8.2674057     -2.3810690
X       -3.9542361      7.7548973     -0.9631307
X       -5.0198288      5.8859616     -0.0295568
X       -5.6144201      3.0824685     -0.9498317
P       -0.2592008      7.2087852      0.1668871
O       -0.1733660      6.1912462      1.4230700
C       -0.9591243      6.2532729      2.5856005
X       -0.4462843      5.3245070      3.6726789
X        1.0829382      3.5668905      3.7784300
X        2.8168806      2.8323267      1.9548905
X        4.3428237      1.4626315      2.6629626
P        1.3806097      7.8347476      5.8808665
O        1.7029270      7.2764202      7.3106961
C        1.2559635      8.0042448      8.4525699
X        1.5378268      7.0986653      9.6528705
X        1.6838101      4.8012364     10.1497245
X        2.4464022      3.1659634      8.2584005
X        2.3428516      0.8245564      9.0071250
P        5.1865000      8.1686102     10.3051665
O        5.9200081      7.0844703     11.1983139
C        7.1636191      7.2607993     11.8763509
X        8.2635967      7.6420132     10.8889446
X        8.8645378      9.5813177      9.6341675
X        8.1835668     12.4748460      9.7996234
P       11.2990315      6.2723526     12.8736731
O       12.2538780      5.4059777     11.9090475
C       12.6768902      4.0818142     12.1750633
X       13.7424436      3.5550875     11.1966133
X       16.0842831      3.3928014     11.2620375
X       18.1544565      3.7148835     13.3983643
P       13.1566674     -0.2164775     11.5209641
O       14.0318649     -1.0918266     10.5028832
C       13.5539314     -2.2356752      9.7275760
X       14.5577306     -2.8260513      8.7329551
X       16.4509681     -2.0634804      7.6056169
X       18.2067273     -0.3375857      8.5706953
X       20.4039645     -0.4719606      7.4279871
   142
  Step:         1775 Total energy:    2020.4571191884872      Temperature:   0.59056672927817422     
O       -4.4800621     -4.4162513    -15.5173548
C       -3.3909511     -3.9182081    -14.8104821
X       -2.0662310     -4.3654473    -15.4240245
X       -1.4080542     -6.0579936    -16.8893119
X       -3.0836891     -6.7234849    -18.8102574
X       -1.8718859     -7.3885759    -20.8452444
P       -1.1297420     -1.3841624    -17.5802895
O        0.0752728     -1.8144390    -18.5397399
C        1.4698631     -1.8752130    -18.1048716
X        1.8844670     -0.6102320    -17.4333228
X        0.9678581      1.4838906    -16.9328773
X       -1.5655964      1.9396647    -16.4844668
X       -2.0020755      4.2984225    -16.0536003
P        1.7165890     -2.0116604    -13.7933237
O        2.7286520     -1.2642902    -12.8823782
C        4.0941746     -1.6487824    -13.0191701
X        4.8665449     -1.0788920    -11.8660986
X        4.6746818      0.5694683    -10.2225368
X        2.3148094      1.0010052     -9.1918377
X        2.4369369      1.3388190     -6.7834489
P        4.4831423     -3.9891582     -9.4168031
O        5.1192126     -3.6644638     -7.9979850
C        6.3739942     -4.2126358     -7.6723388
X        6.6883022     -3.9497380     -6.1966262
X        6.1712553     -5.0814899     -4.1905491
X        5.8350728     -7.6744718     -4.1730711
X        6.0389612     -8.6605215     -1.9292579
P       10.5406135     -4.2365428     -6.2056152
O       11.1571882     -4.9077234     -4.8837946
C       12.4852732     -5.4828490     -4.8449495
X       12.8766629     -5.9113857     -3.4230816
X       12.1963288     -5.3553417     -1.2316324
X        9.6682529     -4.1145835     -0.0347237
P       11.6246853     -9.5676876     -3.4897663
O       11.8421279    -10.2041344     -2.0452220
C       10.8172592    -10.9323931     -1.3750863
X       11.2020317    -11.1691255      0.0586055
X       13.1978876    -10.8964680      1.2599784
X       14.9653504     -8.9888730      0.7942653
X       16.2143144     -8.3347619      2.8214692
P        8.9997224     -8.3621691      1.5419811
O        9.2050135     -8.2983782      3.1250110
C        8.9457363     -9.3388870      4.0712927
X        8.7237379     -8.8569738      5.5075515
X        8.9495725     -6.8644897      6.7142953
X        8.7279247     -4.4848221      5.6478682
X        8.4389808     -2.8171904      7.3908835
P        4.9362546     -8.7002042      5.5535463
O        4.3901950     -7.8933563      6.7954280
C        3.9057414     -8.5866881      7.9272007
X        3.1635189     -7.6985061      8.8968672
X        2.9120742     -5.3812370      9.1585504
X        3.2877374     -3.1174295      7.1978330
P       -0.3180613     -8.3624193      7.5197402
O       -1.2323519     -7.0674994      7.6922836
C       -1.9390849     -6.8533950      8.9133122
X       -2.6301319     -5.4895518      8.9637050
X       -2.4254764     -3.4660240      7.7986717
X       -1.4520575     -2.6364994      4.9856887
P       -5.8290043     -6.5982030      7.1557429
O       -6.6742604     -5.2622719      6.9359316
C       -8.0362689     -5.1584298      7.4680369
X       -8.7243958     -3.8597194      7.1709923
X       -8.3045865     -1.5495314      7.5172972
X       -5.7773620     -0.0318880      8.0062460
P       -9.8421785     -4.2725642      3.5089027
O      -11.3324974     -3.7741010      3.1246102
C      -11.6542632     -2.3822050      2.8229529
X      -12.9570981     -2.3480137      2.0320109
X      -13.9190644     -3.5630201      0.2155987
X      -13.3622160     -6.2803474     -0.9556478
P      -15.3604903     -2.3793887      5.0512872
O      -16.4877858     -1.2553372      4.8969008
C      -17.3675812     -1.1817107      3.7914972
X      -18.3368946     -0.0419907      4.0591826
X      -19.3765308      0.7769030      5.9882485
X      -18.6681025      0.3023361      8.8578968
P      -16.2610970      2.6989827      2.4423962
O      -17.0872880      3.4718507      1.3366150
C      -16.7457067      3.6669176     -0.0788502
X      -16.0617630      2.4727816     -0.6708368
X      -16.6870385      0.6038820     -1.9540411
X      -19.0120915      0.0983171     -3.7461003
P      -14.2422170      4.1501054     -3.5464281
O      -13.9634247      3.1410410     -4.7593429
C      -14.7822879      3.0925040     -5.9381079
X      -15.0161769      4.4530137     -6.5577233
X      -14.8160055      6.6658732     -5.8689930
X      -13.3169130      8.1805495     -3.6568851
P      -11.8437826      4.5280810     -8.7813930
O      -11.4377903      6.0314072     -9.2306501
C      -10.9433017      6.1899252    -10.5626938
X      -10.3260315      7.6011366    -10.7341415
X      -10.7330404      9.7294800     -9.7878998
X      -11.9890787     10.2669175     -7.5380730
X      -12.4189166     12.4101346     -7.1761844
P       -6.7866315      6.6356361     -9.6936237
O       -6.2215943      7.6873549     -8.6675103
C       -6.7551591      7.7226015     -7.3269556
X       -6.5281147      6.4023407     -6.5325256
X       -5.8260008      4.2358051     -7.1354950
X       -4.3462660      3.8166332     -9.2825324
X       -2.7089104      2.3733165     -9.0615860
P       -3.2972795      7.5031102     -4.8314638
O       -3.3951895      7.1754927     -3.2785263
C       -3.6028565      8.2241442     -2.3315012
X       -3.9320114      7.7259768     -0.9252745
X       -4.9935455      5.8568433      0.0420423
X       -5.6058603      3.0911072     -0.9685105
P       -0.2915351      7.1495733      0.1405690
O       -0.1148610      6.1642735      1.3812596
C       -0.9474936      6.2752296      2.5373168
X       -0.4360462      5.3438211      3.6836949
X        1.0576202      3.5226984      3.7999612
X        2.8324195      2.8422689      1.9715106
X        4.3469825      1.4329643      2.6635898
P        1.3709184      7.8220736      5.8945277
O        1.6550885      7.2190464      7.3391153
C        1.2268723      7.9018066      8.4981735
X        1.5718435      7.1005938      9.7089951
X        1.7343679      4.8352984     10.1889404
X        2.4306667      3.1668391      8.2929816
X        2.3218966      0.8528618      8.9693761
P        5.1650847      8.1745619     10.3016833
O        5.8760991      7.0739511     11.2226860
C        7.1780737      7.2366405     11.8507417
X        8.2993990      7.6049906     10.8945562
X        8.8377060      9.5380155      9.6123031
X        8.2026923     12.4842427      9.8156550
P       11.2981118      6.2200088     12.8814518
O       12.2805524      5.4153681     11.9080745
C       12.6255375      4.0234731     12.1423246
X       13.7324408      3.5066894     11.2122378
X       16.0810856      3.4366817     11.2434183
X       18.1487575      3.7033343     13.3813495
P       13.1608607     -0.2359198     11.5118982
O       14.0887333     -1.0498237     10.4974660
C       13.5619469     -2.1207508      9.7049455
X       14.5488254     -2.7584201      8.7192697
X       16.4999081     -2.0624437      7.6066347
X       18.2262897     -0.3372721      8.5420972
X       20.3704408     -0.4797374      7.4166713
   142
  Step:         1800 Total energy:    2020.0767686478612      Temperature:   0.58829798142771339     
O       -4.4923589     -4.4121107    -15.5245590
C       -3.3894131     -3.8768977    -14.7687362
X       -2.0851534     -4.3784379    -15.3876688
X       -1.4203777     -5.9968454    -16.9153738
X       -3.0656229     -6.7290566    -18.8089583
X       -1.8815761     -7.3922859    -20.8513403
P       -1.1508686     -1.3883864    -17.5345305
O        0.0275741     -1.7697171    -18.5227491
C        1.4212323     -1.9155802    -18.1176905
X        1.9438013     -0.6843901    -17.4012795
X        0.9944244      1.4428235    -16.9820504
X       -1.5523705      1.9321053    -16.4695193
X       -1.9906779      4.2838587    -16.0566759
P        1.6830705     -2.0388974    -13.8447692
O        2.7262995     -1.2605221    -12.8861246
C        4.1338046     -1.5953014    -13.0189417
X        4.9909626     -1.0808034    -11.8661476
X        4.6779092      0.5217350    -10.2201086
X        2.3085412      1.0124271     -9.1662228
X        2.4224953      1.3554083     -6.7784306
P        4.4656630     -4.0340757     -9.4394340
O        5.0670318     -3.6639567     -8.0107183
C        6.3570363     -4.1670483     -7.6240229
X        6.6507549     -3.9267164     -6.1646401
X        6.1401064     -5.0623250     -4.2041800
X        5.8310763     -7.6767403     -4.2066441
X        6.0320738     -8.6377294     -1.9337680
P       10.4954026     -4.2278224     -6.2057685
O       11.0812994     -4.8736650     -4.8699125
C       12.4130992     -5.4286447     -4.7843756
X       12.8008879     -5.9039019     -3.3877186
X       12.2278399     -5.3732518     -1.1735955
X        9.6725701     -4.1287618     -0.0459755
P       11.6660436     -9.5896532     -3.5270795
O       11.8413435    -10.1747604     -2.0645545
C       10.8179929    -10.8947647     -1.3784139
X       11.2151056    -11.1212715      0.0874654
X       13.2033551    -10.8418449      1.2903430
X       14.9939116     -9.0080441      0.7953082
X       16.1966412     -8.3845288      2.8079619
P        9.0183324     -8.4042920      1.5443307
O        9.1496689     -8.2062247      3.1415178
C        8.9925643     -9.3241821      4.0275653
X        8.7512667     -8.8698807      5.4981017
X        8.9778628     -6.8800781      6.6822259
X        8.7169144     -4.4799624      5.6505183
X        8.4364349     -2.7717987      7.4096218
P        4.9506932     -8.6949228      5.5385369
O        4.3620311     -7.8750518      6.8024515
C        3.9748242     -8.5605397      7.9567620
X        3.1779662     -7.6504280      8.8814455
X        2.8673047     -5.3241005      9.1577248
X        3.2811467     -3.1158182      7.2049734
P       -0.3307354     -8.3325422      7.4930139
O       -1.2495261     -7.0423599      7.6914297
C       -1.9309897     -6.8344707      8.9058369
X       -2.5832478     -5.4547910      8.9673679
X       -2.3877824     -3.4601933      7.7577600
X       -1.4575994     -2.6168102      4.9935818
P       -5.7758226     -6.5718107      7.1841312
O       -6.7162508     -5.3287651      6.8613677
C       -8.0362854     -5.1985576      7.3896153
X       -8.7216125     -3.8954988      7.1313108
X       -8.2733880     -1.5698788      7.4474087
X       -5.7975238      0.0007706      8.0030300
P       -9.8470426     -4.3106326      3.5012218
O      -11.3140881     -3.8007884      3.1402374
C      -11.6576287     -2.4944817      2.7731656
X      -12.9591973     -2.3919426      2.0306829
X      -13.8944254     -3.5252154      0.2039462
X      -13.3692795     -6.2411783     -0.9686790
P      -15.3463493     -2.3700913      5.0912848
O      -16.4513002     -1.2359474      4.8689671
C      -17.3948310     -1.2155570      3.8247015
X      -18.3407745     -0.0384325      4.0908449
X      -19.4371747      0.7847711      6.0125291
X      -18.6557566      0.2818059      8.8782355
P      -16.2248549      2.7248243      2.3905629
O      -17.0980489      3.5257057      1.3108044
C      -16.7582651      3.7042919     -0.0856469
X      -16.0769652      2.4555473     -0.6133399
X      -16.7300651      0.5709552     -1.8852554
X      -19.0341563      0.1084511     -3.7677753
P      -14.2551013      4.1378048     -3.5095668
O      -14.0537274      3.1569308     -4.7563806
C      -14.9000581      3.0480267     -5.8956990
X      -15.0460691      4.4163459     -6.5353601
X      -14.9020640      6.6312661     -5.7895755
X      -13.3050652      8.1712387     -3.6528424
P      -11.8805067      4.5207810     -8.8116828
O      -11.3609029      5.9570542     -9.2888534
C      -10.9357174      6.2391815    -10.6115555
X      -10.3102403      7.6181246    -10.7354438
X      -10.7071707      9.6958641     -9.7500956
X      -11.9814053     10.3007871     -7.5126547
X      -12.3938462     12.4003583     -7.2070500
P       -6.7774672      6.6245686     -9.6985172
O       -6.2385923      7.6585314     -8.5954818
C       -6.7538512      7.6977989     -7.2515955
X       -6.5128775      6.3945855     -6.5700684
X       -5.8189852      4.2672411     -7.1538568
X       -4.3669955      3.8126263     -9.2942075
X       -2.7613258      2.3855269     -9.0480362
P       -3.2819155      7.4779912     -4.8398014
O       -3.4258685      7.1687517     -3.2609056
C       -3.6439611      8.1848776     -2.2604844
X       -3.8473006      7.6582288     -0.8767780
X       -4.9481743      5.8292275      0.0549020
X       -5.5956955      3.1011993     -0.9893753
P       -0.2978508      7.1003286      0.1158237
O       -0.1200795      6.1653918      1.3830512
C       -0.9153140      6.2624950      2.5623907
X       -0.4275706      5.3247756      3.6256726
X        0.9643496      3.4818481      3.7468452
X        2.8299055      2.8396747      2.0089027
X        4.3601348      1.4010446      2.6664611
P        1.3820141      7.8268833      5.8797503
O        1.5944376      7.1668045      7.3367273
C        1.2572532      7.8704053      8.5469606
X        1.5567198      7.0985288      9.8359230
X        1.7309080      4.7983105     10.2745411
X        2.4175638      3.2047341      8.2977241
X        2.3049681      0.8427026      8.9476215
P        5.1664655      8.1738498     10.3170386
O        5.9449485      7.0962812     11.2067128
C        7.2068239      7.2688951     11.8673813
X        8.2573794      7.6157012     10.8684533
X        8.7941045      9.5231847      9.6618500
X        8.2266615     12.4756677      9.8371894
P       11.2957435      6.1693991     12.8454359
O       12.3359225      5.3814970     11.9346038
C       12.6145103      3.9671965     12.1436319
X       13.6896626      3.5082335     11.2222150
X       16.0444358      3.5288118     11.1647474
X       18.1417773      3.6923978     13.3712107
P       13.1658528     -0.2644441     11.4959624
O       14.1245757     -1.0335183     10.4554995
C       13.5438981     -2.0364615      9.6755089
X       14.5471688     -2.6672194      8.7462220
X       16.5249448     -2.0705800      7.5918427
X       18.2194071     -0.3299352      8.5362414
X       20.3672486     -0.4919087      7.3825537
   142
  Step:         1825 Total energy:    2017.2124618191126      Temperature:   0.55781211915927253     
O       -4.5300224     -4.3929740    -15.5462714
C       -3.3870348     -3.8644218    -14.7746299
X       -2.0455705     -4.3717223    -15.2777109
X       -1.4182527     -5.9555519    -16.9004391
X       -3.0557615     -6.7379473    -18.8162547
X       -1.8934062     -7.3913679    -20.8522447
P       -1.1652561     -1.3793372    -17.4861794
O        0.0464220     -1.7082720    -18.4897054
C        1.3743025     -1.9638532    -18.1270327
X        1.8780790     -0.7193505    -17.4027906
X        0.9944921      1.3964898    -16.9630569
X       -1.5162010      1.8836957    -16.4732041
X       -1.9838486      4.2912315    -16.0470785
P        1.6751609     -2.0260587    -13.8785646
O        2.7702251     -1.3438194    -12.9357769
C        4.1566724     -1.6136902    -13.0261963
X        5.0213471     -1.0730294    -11.8506993
X        4.6847064      0.4779189    -10.1373682
X        2.3005644      1.0254827     -9.1894897
X        2.4126880      1.3791902     -6.7260877
P        4.4548305     -4.0465613     -9.4725788
O        5.0477423     -3.7166545     -8.0302552
C        6.3929265     -4.0826487     -7.6316036
X        6.6128357     -3.9148002     -6.1248299
X        6.0866870     -5.0821846     -4.1668413
X        5.8246025     -7.6971569     -4.2067894
X        6.0267077     -8.5993213     -1.9729200
P       10.4469803     -4.2162215     -6.1868813
O       10.9938570     -4.8435238     -4.8201266
C       12.3008526     -5.4063341     -4.7507284
X       12.7328482     -5.8775294     -3.3849489
X       12.2290428     -5.4018654     -1.1571108
X        9.6735509     -4.1351804     -0.0570755
P       11.7186095     -9.5672753     -3.5568809
O       11.8162128    -10.1940640     -2.0751089
C       10.8163063    -10.9177559     -1.3682860
X       11.2355816    -11.0741868      0.0894454
X       13.1715822    -10.7951287      1.3899502
X       15.0136663     -9.0337444      0.7655290
X       16.1963540     -8.4299681      2.8204359
P        9.0247149     -8.4015679      1.5833485
O        9.1260261     -8.2131163      3.1475263
C        8.9763245     -9.3010994      4.0190904
X        8.8106488     -8.8602851      5.4676266
X        9.0444595     -6.8790029      6.6628208
X        8.7128321     -4.4609179      5.6705300
X        8.4338741     -2.7445235      7.4133903
P        4.9442928     -8.6906805      5.5119739
O        4.3830388     -7.8945427      6.7607045
C        4.0126803     -8.5197040      7.9974609
X        3.1577540     -7.6312097      8.9101307
X        2.8586240     -5.3227981      9.1790577
X        3.2745067     -3.1111290      7.2061677
P       -0.3194020     -8.3015780      7.4571448
O       -1.2312025     -7.0294738      7.7168240
C       -1.8872590     -6.8062982      8.9524832
X       -2.5918609     -5.4676200      8.9462307
X       -2.3826484     -3.4103487      7.8052181
X       -1.4535334     -2.5960861      4.9909662
P       -5.7359021     -6.5330271      7.2099340
O       -6.7520755     -5.3410359      6.8191739
C       -8.0914269     -5.2731910      7.2997998
X       -8.7523469     -3.9066303      7.0502579
X       -8.2372326     -1.6382102      7.4722529
X       -5.8060014      0.0409573      7.9974776
P       -9.8353844     -4.3684055      3.4718771
O      -11.3543406     -3.8914178      3.1605422
C      -11.6096412     -2.5443007      2.7985834
X      -12.9566364     -2.4254310      2.0508815
X      -13.9175600     -3.4975872      0.2031140
X      -13.3758956     -6.2046888     -0.9895256
P      -15.3158586     -2.3588747      5.0801704
O      -16.4365245     -1.2132254      4.9660908
C      -17.4107115     -1.1932689      3.9023784
X      -18.3705329     -0.0474942      4.0992062
X      -19.4000691      0.7644577      6.0234214
X      -18.6485376      0.2669153      8.8958230
P      -16.2090053      2.7497910      2.3337867
O      -17.1240405      3.5595236      1.3055524
C      -16.7394556      3.6954868     -0.0370244
X      -16.1106232      2.4261217     -0.6137129
X      -16.8452078      0.5489163     -1.7804001
X      -19.0498318      0.1243740     -3.7830921
P      -14.2705036      4.1387607     -3.4879525
O      -14.0978437      3.1275709     -4.7073646
C      -14.9291026      3.0541124     -5.8727281
X      -15.0881711      4.4361311     -6.5225881
X      -14.9128823      6.6439905     -5.7277136
X      -13.2946256      8.1552915     -3.6490915
P      -11.9209039      4.4809036     -8.8381568
O      -11.3745121      5.8979185     -9.3122226
C      -10.9498650      6.2369770    -10.6580204
X      -10.3195277      7.6155955    -10.7125070
X      -10.6969960      9.7113130     -9.7422940
X      -11.9637542     10.3127349     -7.5024248
X      -12.3745010     12.4272491     -7.2250110
P       -6.7690443      6.6382225     -9.6824693
O       -6.2083617      7.6020033     -8.5710351
C       -6.7961114      7.7038589     -7.2702815
X       -6.5158564      6.4088388     -6.5259158
X       -5.8041955      4.2502117     -7.1317539
X       -4.3955251      3.8178259     -9.3268707
X       -2.7871456      2.3791587     -9.0390495
P       -3.2931718      7.4382670     -4.7961381
O       -3.4409178      7.1664421     -3.2595873
C       -3.6189863      8.2050925     -2.2776124
X       -3.8544274      7.6331102     -0.8687117
X       -4.9079520      5.7805241      0.1753500
X       -5.5822394      3.1089212     -1.0142178
P       -0.2339773      7.0745384      0.0840360
O       -0.1174619      6.1424981      1.3819110
C       -0.9294792      6.2921509      2.5703825
X       -0.4743192      5.3140114      3.6302408
X        0.9065314      3.4010465      3.7612860
X        2.8419843      2.7972333      2.0309993
X        4.3614588      1.3980874      2.6715366
P        1.3866365      7.7949632      5.8919921
O        1.5367649      7.2055516      7.3690674
C        1.3061481      7.9248602      8.5963498
X        1.5333504      7.0337008      9.8350288
X        1.7034672      4.7405506     10.3174943
X        2.4008412      3.2426738      8.3145564
X        2.2967561      0.8427973      8.9276712
P        5.1894848      8.1650110     10.3425135
O        5.9727391      7.0733114     11.1912023
C        7.1692709      7.3108006     11.9286470
X        8.2739394      7.6187653     10.8743222
X        8.8154089      9.5020405      9.5899206
X        8.2518243     12.4654010      9.8609209
P       11.2808339      6.1379228     12.8003442
O       12.3318546      5.3204940     11.9388442
C       12.6416505      3.9428546     12.1806902
X       13.7134349      3.5197054     11.1990274
X       16.0358029      3.6240909     11.2320491
X       18.1265635      3.6817838     13.3472877
P       13.1935507     -0.2650075     11.4824229
O       14.1196111     -1.0129052     10.4708011
C       13.5414049     -1.9691902      9.5875278
X       14.5419626     -2.6913163      8.7163136
X       16.4865143     -2.0398736      7.5910708
X       18.2154358     -0.3265997      8.5435079
X       20.3686505     -0.4998445      7.3498215
   142
  Step:         1850 Total energy:    2014.8329187289442      Temperature:   0.57066100393280184     
O       -4.4645404     -4.3475007    -15.5410291
C       -3.3954807     -3.8975743    -14.7168362
X       -2.0886544     -4.3593770    -15.2783523
X       -1.4476461     -5.9812120    -16.8730788
X       -3.0497067     -6.7336086    -18.7977754
X       -1.8974785     -7.3994036    -20.8703360
P       -1.1677847     -1.3592064    -17.4373916
O       -0.0261309     -1.7310897    -18.4982311
C        1.2893538     -1.9785283    -18.0954801
X        1.8727749     -0.7257366    -17.4185474
X        1.0592798      1.4162741    -16.9368207
X       -1.5089515      1.8808254    -16.4728239
X       -1.9641179      4.2458320    -16.0376524
P        1.6876821     -2.0182602    -13.8820339
O        2.8439307     -1.3919866    -12.9503493
C        4.2161992     -1.6406209    -13.0549632
X        4.9581389     -1.1083601    -11.8298876
X        4.6560408      0.4462732    -10.0806287
X        2.2995633      1.0549573     -9.1528782
X        2.3968500      1.3998962     -6.7225262
P        4.4581765     -4.0433331     -9.5007094
O        5.0331045     -3.7779334     -8.0259306
C        6.3766995     -4.0814449     -7.6126329
X        6.6089942     -3.8695632     -6.1134932
X        6.0017832     -5.0989179     -4.2022903
X        5.8124005     -7.7028988     -4.2412212
X        6.0318966     -8.5910671     -1.9696147
P       10.3804815     -4.2039895     -6.1418958
O       10.9183310     -4.8030562     -4.7661507
C       12.2206933     -5.4056497     -4.7907396
X       12.7144675     -5.8652884     -3.4064249
X       12.2208628     -5.4071416     -1.1560706
X        9.6686030     -4.1341490     -0.0597834
P       11.7497217     -9.5510424     -3.5537948
O       11.8568733    -10.1856314     -2.0978822
C       10.8717314    -10.9305981     -1.3635979
X       11.2063890    -11.0888957      0.1096529
X       13.1342578    -10.7502916      1.3771751
X       15.0270566     -9.0566791      0.7437771
X       16.2055996     -8.4612850      2.8324691
P        8.9826467     -8.3515835      1.5862977
O        9.1712592     -8.2531472      3.1782741
C        8.9664066     -9.3580234      4.0571242
X        8.7864640     -8.8639393      5.4746769
X        9.1273237     -6.8411779      6.6573159
X        8.7105783     -4.4335608      5.7086458
X        8.4402676     -2.7315180      7.4088473
P        4.9551075     -8.6900375      5.4851272
O        4.4001931     -7.8859584      6.7626355
C        3.9830452     -8.5351561      8.0048797
X        3.2051797     -7.6191099      8.9213481
X        2.8524652     -5.3422323      9.2040421
X        3.2650931     -3.1040621      7.2072331
P       -0.2720841     -8.2784670      7.4135348
O       -1.1982473     -7.0162248      7.7111733
C       -1.8901627     -6.7601524      8.9776064
X       -2.5762270     -5.4060493      8.9835250
X       -2.3836441     -3.3980709      7.7836741
X       -1.4463863     -2.5816008      4.9950668
P       -5.7694762     -6.5254208      7.2006633
O       -6.7295224     -5.3004669      6.8581023
C       -8.1134233     -5.3189339      7.1942696
X       -8.7716922     -3.9218500      7.0220681
X       -8.2054283     -1.7305401      7.5139507
X       -5.8122876      0.0785661      7.9936006
P       -9.8482899     -4.4420353      3.3972284
O      -11.3289014     -3.9744599      3.1590498
C      -11.6326376     -2.5967169      2.8594279
X      -12.9363664     -2.4425263      2.0540962
X      -13.9466815     -3.4782435      0.2272525
X      -13.3861286     -6.1678268     -1.0120597
P      -15.3019286     -2.3390191      5.0624692
O      -16.4247439     -1.2406701      5.0179983
C      -17.3407899     -1.1654619      3.8946089
X      -18.3281700     -0.0332905      4.1314670
X      -19.4042803      0.8183653      6.0368898
X      -18.6428233      0.2615669      8.9102630
P      -16.2376086      2.7229915      2.3384950
O      -17.1226122      3.5707370      1.2909045
C      -16.7833202      3.7292108     -0.0555075
X      -16.1484975      2.4107959     -0.5698223
X      -16.8972045      0.5418270     -1.7294707
X      -19.0682275      0.1366901     -3.7904736
P      -14.2921554      4.1249144     -3.4765564
O      -14.0997480      3.0984355     -4.6923580
C      -14.8971534      3.0999613     -5.8749702
X      -15.0962250      4.4554931     -6.4925727
X      -14.9301094      6.7083222     -5.7904421
X      -13.2762242      8.1378608     -3.6393592
P      -11.9684984      4.4044797     -8.8680517
O      -11.4888391      5.8914957     -9.2813617
C      -10.9726127      6.1957335    -10.6259182
X      -10.3391602      7.5874627    -10.6991145
X      -10.7278072      9.7122043     -9.7582924
X      -11.9407541     10.3160540     -7.5064008
X      -12.3598920     12.4733575     -7.2298319
P       -6.7607457      6.6381511     -9.6742602
O       -6.1783939      7.6418426     -8.5639629
C       -6.7834340      7.6925646     -7.2734607
X       -6.5615049      6.3956835     -6.4864005
X       -5.7756680      4.2891634     -7.1518323
X       -4.4262520      3.8203700     -9.3408967
X       -2.8033708      2.3637646     -9.0507749
P       -3.3253423      7.4061864     -4.7668370
O       -3.4224774      7.0990966     -3.1831721
C       -3.6412616      8.1542767     -2.2346165
X       -3.8563849      7.6495380     -0.8310227
X       -4.8812418      5.7818049      0.1139369
X       -5.5623998      3.1086017     -1.0337692
P       -0.1636348      7.0489559      0.0812724
O       -0.0820374      6.1310358      1.3702703
C       -0.9118600      6.2701129      2.5564258
X       -0.5180967      5.2969167      3.6645183
X        0.9090305      3.4267970      3.7016025
X        2.8002367      2.7529793      2.0446963
X        4.3884667      1.3998183      2.6963782
P        1.3763061      7.7524002      5.9187121
O        1.5147518      7.1857914      7.4124672
C        1.2409353      7.8958883      8.6270097
X        1.6075787      7.0744498      9.8338385
X        1.5873483      4.7846384     10.3105690
X        2.3838171      3.2254552      8.3408012
X        2.2987335      0.8773686      8.8991424
P        5.1920033      8.1400072     10.3662637
O        5.9690143      7.0244713     11.2180913
C        7.1809840      7.3352005     11.8694381
X        8.2965917      7.6724059     10.8812382
X        8.8666401      9.5102562      9.5660359
X        8.2770536     12.4403292      9.8833921
P       11.2552390      6.1353861     12.7884491
O       12.2618914      5.2801685     11.8710564
C       12.6161719      3.9480852     12.2037232
X       13.7024796      3.5172910     11.2019999
X       16.0709652      3.6450371     11.1187654
X       18.1171013      3.6688447     13.3354980
P       13.2112092     -0.2294931     11.4916285
O       14.1291932     -1.0681797     10.4502741
C       13.4783010     -1.9770301      9.5064963
X       14.5351948     -2.6807961      8.6617683
X       16.4877854     -2.0491511      7.5569465
X       18.2350020     -0.3243426      8.5400347
X       20.3419755     -0.5055975      7.3319632
   142
  Step:         1875 Total energy:    2019.1762555289865      Temperature:   0.62234878260298310     
O       -4.4280891     -4.2871258    -15.5323977
C       -3.3940292     -3.9083896    -14.6664285
X       -2.0867036     -4.3827494    -15.2907318
X       -1.4478588     -6.0393881    -16.8551546
X       -3.0444784     -6.7347329    -18.7932087
X       -1.9036939     -7.4047440    -20.8655288
P       -1.1896553     -1.3222228    -17.4007614
O       -0.1228792     -1.7698777    -18.4770425
C        1.2765692     -1.9252161    -18.1441514
X        1.8460610     -0.7020755    -17.4277389
X        1.0467395      1.4194010    -16.9259692
X       -1.4909291      1.8738251    -16.4825462
X       -1.9446269      4.2013802    -16.0227218
P        1.7103235     -2.0345436    -13.8554371
O        2.8192714     -1.3714472    -12.9170975
C        4.2464919     -1.6495539    -13.0254765
X        5.0208104     -1.1679024    -11.8251000
X        4.6141507      0.4086427    -10.1223931
X        2.2924387      1.0861237     -9.1083877
X        2.3752488      1.4160663     -6.7261053
P        4.4707122     -4.0716495     -9.4873947
O        5.0276748     -3.8005220     -8.0118695
C        6.3494222     -4.0882550     -7.6333575
X        6.5277480     -3.8627725     -6.1625716
X        5.9444988     -5.0874746     -4.2347473
X        5.7985886     -7.7080677     -4.2658257
X        6.0427160     -8.5902696     -1.9605741
P       10.3103156     -4.1773408     -6.0832631
O       10.8972083     -4.7865305     -4.7339148
C       12.1711775     -5.4211306     -4.7769285
X       12.7097258     -5.8712030     -3.4329989
X       12.1925442     -5.3754960     -1.2254072
X        9.6629106     -4.1290513     -0.0625192
P       11.7544549     -9.5485418     -3.5210916
O       11.9272173    -10.1818029     -2.0491214
C       10.8594360    -10.9413266     -1.4237040
X       11.1881385    -11.0941505      0.0693940
X       13.1233670    -10.7443800      1.3637616
X       15.0501465     -9.0748287      0.7574323
X       16.2038338     -8.4910713      2.8122111
P        8.9444274     -8.3051326      1.5987989
O        9.2083137     -8.2739665      3.1632033
C        8.9379274     -9.3663063      4.1093760
X        8.7643801     -8.8663181      5.5302597
X        9.1458323     -6.8152938      6.6517692
X        8.7203245     -4.4335052      5.7091245
X        8.4460045     -2.6938343      7.4374800
P        4.9633766     -8.6711914      5.4918773
O        4.4084236     -7.8806794      6.7492391
C        3.9934308     -8.5699147      7.9535673
X        3.2191358     -7.6392197      8.8928581
X        2.9262738     -5.3459148      9.1723070
X        3.2545086     -3.1023814      7.2169959
P       -0.2146177     -8.2273494      7.3999533
O       -1.1726593     -6.9803021      7.7012639
C       -1.8620611     -6.7354320      8.9594536
X       -2.5608220     -5.3799801      8.9989399
X       -2.4187624     -3.3708559      7.7925202
X       -1.4375629     -2.5659261      4.9937441
P       -5.8074418     -6.5302744      7.1888495
O       -6.7082260     -5.2425150      6.9227288
C       -8.1013633     -5.3417649      7.1475946
X       -8.7692692     -3.9638396      7.0247105
X       -8.1860616     -1.7767534      7.5059518
X       -5.8236605      0.1049519      7.9930671
P       -9.8479418     -4.5121681      3.3215507
O      -11.3525311     -4.0193640      3.0764174
C      -11.6530647     -2.6304225      2.8514915
X      -12.9340291     -2.4339397      2.1077501
X      -13.9051433     -3.4435959      0.2426444
X      -13.3902499     -6.1338316     -1.0340637
P      -15.2718869     -2.3615117      5.0846233
O      -16.4143019     -1.2416538      4.9813102
C      -17.3182643     -1.1262596      3.8807622
X      -18.2492179      0.0223865      4.1672381
X      -19.3658624      0.8265406      6.0706890
X      -18.6376299      0.2634413      8.9149648
P      -16.2848352      2.6833857      2.3603259
O      -17.1513243      3.5465351      1.3459015
C      -16.8346698      3.7097916     -0.0461869
X      -16.1891966      2.4343827     -0.5744290
X      -16.8887817      0.5725794     -1.7856871
X      -19.0880649      0.1466753     -3.7853797
P      -14.3325845      4.0817124     -3.4652395
O      -14.0570194      3.1326043     -4.7092122
C      -14.9074801      3.1337648     -5.8744738
X      -15.0334202      4.5102379     -6.5159840
X      -14.8852540      6.7525116     -5.8342577
X      -13.2589317      8.1169811     -3.6317748
P      -12.0404973      4.3685576     -8.8818362
O      -11.6034968      5.8340504     -9.2693534
C      -10.9877439      6.1574829    -10.5110225
X      -10.3817755      7.5240940    -10.6631945
X      -10.7882880      9.6771364     -9.7905301
X      -11.9262258     10.3670211     -7.5200940
X      -12.3346011     12.4758345     -7.2312153
P       -6.7517209      6.6491570     -9.6625087
O       -6.2370949      7.6490858     -8.5305615
C       -6.7702461      7.7268224     -7.2353966
X       -6.5782750      6.4085726     -6.5322252
X       -5.8190940      4.2734752     -7.1376721
X       -4.4199175      3.8060074     -9.3389367
X       -2.8332316      2.3654409     -9.0784540
P       -3.3598651      7.3634440     -4.7040438
O       -3.4352953      7.0566344     -3.1448022
C       -3.6048926      8.1341266     -2.2380747
X       -3.8000544      7.6661129     -0.8030918
X       -4.9239047      5.8202151      0.1014954
X       -5.5456137      3.0922783     -1.0524728
P       -0.1251280      7.0267296      0.1049263
O       -0.0221172      6.1131792      1.4290707
C       -0.9226814      6.2578005      2.5119994
X       -0.5202957      5.3134832      3.6151714
X        0.8890551      3.3993445      3.7940181
X        2.7608002      2.7001855      2.0395688
X        4.4145609      1.4238664      2.7312818
P        1.3723756      7.7159539      5.9607396
O        1.5284967      7.1395243      7.4365428
C        1.2714203      7.9382197      8.5990055
X        1.5426087      7.1136167      9.8471685
X        1.5647567      4.8147573     10.2844744
X        2.3545730      3.2471653      8.3529431
X        2.3011870      0.8683543      8.8865480
P        5.2015141      8.1027240     10.3834031
O        6.0008355      7.0326932     11.2434055
C        7.2380481      7.3250924     11.8718560
X        8.2908238      7.6589671     10.8563409
X        8.9609471      9.5074399      9.5500345
X        8.2998530     12.4173121      9.9102261
P       11.2316269      6.1529203     12.7900969
O       12.1439561      5.2687798     11.8159991
C       12.6765320      4.0034923     12.1529932
X       13.7502724      3.5282212     11.1976562
X       16.0671157      3.5879466     11.1178925
X       18.1008109      3.6530018     13.3173455
P       13.2433131     -0.2330641     11.4929416
O       14.0385821     -1.0787975     10.4361746
C       13.4749163     -1.9754093      9.4847633
X       14.5166226     -2.6403758      8.5845969
X       16.5093875     -2.0370831      7.5630647
X       18.2334394     -0.3286077      8.5421574
X       20.3293896     -0.5057107      7.3101308
   142
  Step:         1900 Total energy:    2017.6410329265359      Temperature:   0.55654289164834447     
O       -4.4864902     -4.2307825    -15.5356412
C       -3.3525004     -3.9150645    -14.6981454
X       -2.0179935     -4.4230575    -15.2566945
X       -1.4466859     -6.0443060    -16.8314388
X       -3.0521902     -6.7414013    -18.8069842
X       -1.9021220     -7.4095019    -20.8453965
P       -1.2372612     -1.3134548    -17.3537888
O       -0.1461786     -1.7261863    -18.4483167
C        1.2776566     -1.9029190    -18.2075225
X        1.7984995     -0.7054139    -17.4517858
X        1.0798545      1.4824490    -16.9238695
X       -1.4751167      1.8275164    -16.5044058
X       -1.9363224      4.1992224    -15.9943947
P        1.7481667     -2.0585053    -13.8146090
O        2.8142492     -1.3335662    -12.8942589
C        4.2228649     -1.7314163    -12.9755978
X        5.0333682     -1.1576857    -11.8353988
X        4.6188782      0.3981930    -10.1267297
X        2.2871793      1.1092209     -9.1271099
X        2.3597817      1.4362009     -6.6702149
P        4.4740958     -4.1375246     -9.4796371
O        4.9999158     -3.7738617     -8.0355596
C        6.3238863     -4.1024175     -7.6736556
X        6.4564407     -3.8964912     -6.1776883
X        5.9065068     -5.1131362     -4.2676015
X        5.7894343     -7.7229073     -4.2509729
X        6.0545452     -8.5879615     -1.9923571
P       10.2509128     -4.1352002     -6.0314438
O       10.8871035     -4.8000227     -4.7144734
C       12.1575728     -5.4578915     -4.8242720
X       12.7142734     -5.8636932     -3.4708542
X       12.2137541     -5.3459853     -1.2367454
X        9.6438943     -4.1238813     -0.0642723
P       11.7677874     -9.5523571     -3.4581243
O       11.9148027    -10.1878156     -2.0448088
C       10.8625197    -10.8921500     -1.4342706
X       11.1972166    -11.0516051      0.0134001
X       13.1067448    -10.7789142      1.3144401
X       15.0519579     -9.1082087      0.7579343
X       16.2201485     -8.4993882      2.8154981
P        8.9450250     -8.3220794      1.6193749
O        9.1755971     -8.2456821      3.1950665
C        8.9058386     -9.3200411      4.1075728
X        8.7978292     -8.8573604      5.5325712
X        9.0901127     -6.8400019      6.7164555
X        8.7459104     -4.4137045      5.7050293
X        8.4562498     -2.6784743      7.4489252
P        4.9702314     -8.6560214      5.4903159
O        4.3877082     -7.8831503      6.7586718
C        4.0012897     -8.5917788      7.8923833
X        3.2472954     -7.7099957      8.8758932
X        3.0103811     -5.3767602      9.1651388
X        3.2480663     -3.1009665      7.2229728
P       -0.1946807     -8.1527027      7.3989444
O       -1.1395218     -6.8963002      7.7041237
C       -1.8081294     -6.7149631      8.9261565
X       -2.5889614     -5.4030237      8.9287381
X       -2.4396168     -3.3577868      7.7953931
X       -1.4324293     -2.5486218      5.0032663
P       -5.7814789     -6.5133066      7.1920196
O       -6.7184928     -5.2469799      6.9767237
C       -8.1164195     -5.3387307      7.2182511
X       -8.7576871     -3.9783539      6.9714707
X       -8.1626130     -1.7468519      7.4563144
X       -5.8457346      0.1150614      7.9947315
P       -9.8510358     -4.5718269      3.2810334
O      -11.3197098     -4.0348301      2.9485009
C      -11.6135925     -2.6375232      2.9108441
X      -12.9064509     -2.4294426      2.1339044
X      -13.8933443     -3.4448947      0.2197424
X      -13.3948117     -6.1036388     -1.0525880
P      -15.2702972     -2.3978271      5.1263378
O      -16.3615863     -1.2381097      4.9626016
C      -17.2964853     -1.1199374      3.9067350
X      -18.2413087      0.0327229      4.1411486
X      -19.3138072      0.8556434      6.0680954
X      -18.6282266      0.2732853      8.9295094
P      -16.2926350      2.6886973      2.3712746
O      -17.2449850      3.5065233      1.3939400
C      -16.8819798      3.6762861     -0.0134275
X      -16.2120196      2.4597044     -0.5953370
X      -16.8488746      0.5779262     -1.8617783
X      -19.1118070      0.1528763     -3.7751537
P      -14.3594545      4.0808909     -3.4559861
O      -14.0562221      3.1646938     -4.7088093
C      -14.8757998      3.1467747     -5.8847313
X      -15.0318334      4.5310993     -6.5226546
X      -14.7885169      6.7530916     -5.8858156
X      -13.2394719      8.0906729     -3.6206544
P      -12.1314007      4.3332491     -8.8771771
O      -11.6322263      5.8365017     -9.2486049
C      -10.9869547      6.0343776    -10.4856689
X      -10.4027208      7.4506522    -10.5966406
X      -10.8442947      9.6408428     -9.8221973
X      -11.9088062     10.3931052     -7.5377267
X      -12.3138107     12.4992946     -7.2271619
P       -6.7730612      6.6666461     -9.6485994
O       -6.2504591      7.6928880     -8.5469789
C       -6.8197301      7.7227540     -7.2116869
X       -6.5544703      6.3973050     -6.4955845
X       -5.8829454      4.2764057     -7.1947921
X       -4.4243249      3.8108864     -9.3245323
X       -2.8391914      2.3506623     -9.1092872
P       -3.3767378      7.3187746     -4.6564549
O       -3.4945015      7.0507554     -3.1010723
C       -3.4626539      8.1605864     -2.2103408
X       -3.8094389      7.6197125     -0.8092458
X       -4.9161750      5.7712362      0.1077886
X       -5.5279695      3.0867498     -1.0637905
P       -0.1017022      7.0003896      0.1343390
O        0.0479885      6.1555986      1.4524884
C       -0.8779658      6.2148918      2.5104715
X       -0.4716887      5.2649379      3.6226406
X        0.8861434      3.3798423      3.7760503
X        2.7227146      2.6532452      2.0609592
X        4.4061403      1.4637790      2.7577583
P        1.3712448      7.6912331      5.9807082
O        1.5360645      7.1083092      7.4487769
C        1.3338030      7.9785644      8.5733006
X        1.4530523      7.1513857      9.8549941
X        1.5581304      4.8422939     10.3148222
X        2.3266768      3.2754069      8.3471018
X        2.3057095      0.8507120      8.8804715
P        5.1940251      8.0770123     10.3841396
O        5.9816304      7.0288047     11.2721791
C        7.2702900      7.3714714     11.8867077
X        8.3361652      7.5768265     10.8236396
X        8.9722676      9.4943554      9.5833425
X        8.3199021     12.3981797      9.9307936
P       11.2140766      6.1678712     12.7743477
O       12.0932472      5.2541778     11.7877175
C       12.7224198      4.0076805     12.1767313
X       13.7408227      3.5723259     11.1165805
X       16.0824337      3.5032005     11.0510111
X       18.0893675      3.6394963     13.3043586
P       13.2323068     -0.2428028     11.5030445
O       14.0697536     -1.0603803     10.3670043
C       13.4313620     -1.9351727      9.4460333
X       14.4477583     -2.6282975      8.5360147
X       16.5044012     -2.0167750      7.5278618
X       18.2265762     -0.3237456      8.5546964
X       20.3321842     -0.4971286      7.2827063
   142
  Step:         1925 Total energy:    2019.1902296694573      Temperature:   0.59791858607143578     
O       -4.4538093     -4.1921603    -15.5272061
C       -3.3295556     -3.9224920    -14.6575192
X       -2.0415723     -4.4670523    -15.2725336
X       -1.4363962     -6.0573997    -16.8439110
X       -3.0743559     -6.7383088    -18.7969537
X       -1.8869016     -7.4123256    -20.8357578
P       -1.2601361     -1.3404871    -17.3102470
O       -0.2123188     -1.6445662    -18.4581406
C        1.1799555     -1.8504976    -18.1533383
X        1.8360444     -0.7180963    -17.4358532
X        1.0904767      1.4659021    -16.9461058
X       -1.4668844      1.8132394    -16.5213975
X       -1.9227150      4.1695591    -15.9618073
P        1.7812649     -2.0876857    -13.8058030
O        2.8657540     -1.3313878    -12.9106900
C        4.2216012     -1.7372503    -12.9849018
X        4.9587039     -1.1774634    -11.7764624
X        4.6275903      0.4517602    -10.1177085
X        2.2897444      1.1313510     -9.1167665
X        2.3481310      1.4500146     -6.6509701
P        4.4508290     -4.1918091     -9.5212968
O        4.9557078     -3.7648523     -8.0674746
C        6.2852223     -4.1508064     -7.6545817
X        6.4524878     -3.9276443     -6.1486901
X        5.8437433     -5.1128696     -4.2521268
X        5.7785391     -7.7432525     -4.2582753
X        6.0743449     -8.6060758     -2.0084972
P       10.2208543     -4.0983469     -5.9873027
O       10.8393070     -4.8414296     -4.7316483
C       12.1322906     -5.4897246     -4.8433118
X       12.7138741     -5.8341743     -3.4714650
X       12.1839273     -5.2644370     -1.2659399
X        9.6338143     -4.1173862     -0.0711277
P       11.7830238     -9.5322485     -3.4710066
O       11.9180915    -10.1484460     -1.9932410
C       10.7990156    -10.8235892     -1.4064145
X       11.1405685    -11.0423035      0.0515926
X       13.1162299    -10.8450539      1.2962709
X       15.0514609     -9.1428804      0.7589782
X       16.2498839     -8.4980528      2.8267511
P        8.9590449     -8.3680546      1.6306697
O        9.1158190     -8.1804733      3.2209220
C        8.9733916     -9.2880292      4.1023120
X        8.7733605     -8.8080209      5.5419360
X        9.0167230     -6.8049555      6.6976463
X        8.7747689     -4.3931755      5.7240409
X        8.4675596     -2.6934318      7.4363258
P        4.9941245     -8.6437627      5.4705344
O        4.3896638     -7.8869305      6.7582147
C        3.9877895     -8.6236249      7.8787566
X        3.3227021     -7.7350050      8.8914787
X        3.0408880     -5.4117951      9.1151956
X        3.2445571     -3.1088140      7.2328272
P       -0.1968454     -8.0946478      7.3834730
O       -1.0676718     -6.8033768      7.6836013
C       -1.8362013     -6.7291264      8.8544479
X       -2.5773770     -5.3828011      8.9092851
X       -2.4370685     -3.3728842      7.7502802
X       -1.4281373     -2.5368755      5.0163798
P       -5.7339759     -6.5117529      7.1978144
O       -6.7507257     -5.3009575      6.9976249
C       -8.1515093     -5.2877148      7.2902082
X       -8.7295292     -3.9521619      6.9232300
X       -8.1892526     -1.6637906      7.3726598
X       -5.8779479      0.1128242      7.9940838
P       -9.8315299     -4.6281764      3.2636023
O      -11.2475394     -4.0361222      2.8770685
C      -11.5850039     -2.6637726      2.9010158
X      -12.8666239     -2.4159367      2.1487063
X      -13.8537390     -3.4413554      0.2621980
X      -13.3964983     -6.0794914     -1.0746858
P      -15.2835291     -2.4268777      5.1547349
O      -16.3279033     -1.2162471      5.0170773
C      -17.2469867     -1.1607510      3.9113468
X      -18.2638373     -0.0440564      4.1522510
X      -19.2624428      0.8818130      6.0761470
X      -18.6152214      0.2829914      8.9562726
P      -16.2933250      2.7462323      2.3748234
O      -17.2650172      3.4674909      1.3472454
C      -16.9539370      3.6742360     -0.0502736
X      -16.2389329      2.4617033     -0.5627048
X      -16.8416544      0.5766901     -1.8935509
X      -19.1388564      0.1602071     -3.7674532
P      -14.3626243      4.1514421     -3.4618313
O      -14.0775427      3.1546595     -4.7003778
C      -14.8892025      3.1207174     -5.8735231
X      -15.1023770      4.4885473     -6.5228671
X      -14.7415189      6.7273088     -5.9306241
X      -13.2166926      8.0676468     -3.6018522
P      -12.1955433      4.3301941     -8.8770501
O      -11.6007162      5.7413729     -9.2151424
C      -10.9748096      5.9953214    -10.4534153
X      -10.3921271      7.4149964    -10.6026480
X      -10.8789447      9.5420477     -9.8267676
X      -11.8980929     10.3853676     -7.5540697
X      -12.2862709     12.5471575     -7.2232896
P       -6.8004825      6.6939067     -9.6147049
O       -6.2879810      7.7232580     -8.5394819
C       -6.8005772      7.7455293     -7.1929487
X       -6.5946830      6.4007100     -6.5058570
X       -5.9050486      4.2662673     -7.1811203
X       -4.4349149      3.8243051     -9.3326668
X       -2.8267422      2.3244497     -9.1366631
P       -3.3722132      7.2835536     -4.6496645
O       -3.5603835      7.0400614     -3.0855705
C       -3.4597650      8.1167300     -2.1421094
X       -3.7153777      7.6113591     -0.7519066
X       -4.8574359      5.7765379      0.1070611
X       -5.5110050      3.0770119     -1.0749491
P       -0.0869864      6.9933221      0.1230192
O        0.1139094      6.1603109      1.4816327
C       -0.8360493      6.2072555      2.5726187
X       -0.4278918      5.2247340      3.7019838
X        0.8253099      3.2462707      3.8338382
X        2.7082694      2.6300045      2.0661172
X        4.3932387      1.4859604      2.7893685
P        1.3755705      7.6728896      5.9642648
O        1.5317647      7.1367832      7.4618914
C        1.2642022      7.9501894      8.6092187
X        1.5354019      7.1658135      9.8689321
X        1.5192767      4.8743057     10.2795579
X        2.2961912      3.2669538      8.3501274
X        2.3189131      0.8843255      8.8761342
P        5.1704572      8.0522338     10.3835803
O        5.9557962      7.0472933     11.3205276
C        7.2623601      7.2846657     11.8670832
X        8.2863273      7.5970202     10.8115745
X        8.9721634      9.4767809      9.5793400
X        8.3412930     12.3836727      9.9452821
P       11.2287264      6.1474095     12.7449585
O       12.1382706      5.2392149     11.8259666
C       12.7518354      3.9821384     12.1805446
X       13.7506569      3.5569739     11.0999201
X       16.1025578      3.4851233     11.0231362
X       18.0735897      3.6284055     13.2858972
P       13.2491163     -0.2583431     11.4764935
O       14.0586159     -1.0342595     10.3502721
C       13.4145495     -1.8852609      9.4113225
X       14.3919023     -2.5810572      8.5018066
X       16.4436998     -1.9445852      7.5600851
X       18.2343915     -0.3276550      8.5421560
X       20.3201221     -0.4852155      7.2690202
   142
  Step:         1950 Total energy:    2015.5671901580886      Temperature:   0.59869249831429039     
O       -4.4199747     -4.1737459    -15.5145959
C       -3.3457996     -4.0057804    -14.6053108
X       -2.0596534     -4.4645347    -15.2783301
X       -1.4589311     -6.0853106    -16.8621910
X       -3.0976998     -6.7344615    -18.7939718
X       -1.8735501     -7.4144195    -20.8181235
P       -1.2890535     -1.3638266    -17.2589457
O       -0.2014545     -1.5748664    -18.4311886
C        1.1492844     -1.9147771    -18.1234239
X        1.8073504     -0.7252452    -17.4177971
X        1.1006229      1.4530714    -16.9271492
X       -1.4547457      1.8239850    -16.5427672
X       -1.9172363      4.1226923    -15.9336386
P        1.7969149     -2.1072601    -13.8368817
O        2.8715945     -1.3553578    -12.9408872
C        4.2249902     -1.6724469    -12.9629185
X        4.9581286     -1.1825593    -11.7167011
X        4.5863273      0.4774386    -10.1132772
X        2.2881526      1.1628157     -9.0669363
X        2.3423361      1.4552690     -6.6799048
P        4.4153463     -4.2046235     -9.5539758
O        4.9247749     -3.8822721     -8.0724456
C        6.2494245     -4.1661628     -7.6147285
X        6.4082750     -3.9663145     -6.1203923
X        5.8171067     -5.1323046     -4.1878849
X        5.7624218     -7.7522534     -4.2864164
X        6.1003514     -8.6468395     -2.0014349
P       10.2307812     -4.0456107     -5.9630087
O       10.7946733     -4.9094599     -4.7384108
C       12.1155504     -5.4656113     -4.8469218
X       12.6966406     -5.8249490     -3.5053875
X       12.2240266     -5.2010307     -1.2952403
X        9.6166819     -4.1063236     -0.0762095
P       11.8072777     -9.5120237     -3.4876095
O       11.8374080    -10.0790978     -2.0043238
C       10.7562640    -10.7456933     -1.3287399
X       11.1419242    -11.0833248      0.1268698
X       13.1571827    -10.8852096      1.3252998
X       15.0565022     -9.1762131      0.7942532
X       16.2652223     -8.5059801      2.8059012
P        8.9466670     -8.3704277      1.6403759
O        9.0930918     -8.1839078      3.2004970
C        9.0527405     -9.2712386      4.1061393
X        8.7441276     -8.7810192      5.5494819
X        9.0022358     -6.7920323      6.7541540
X        8.8113862     -4.3834017      5.7103748
X        8.4715533     -2.6978356      7.4462196
P        4.9954301     -8.6224191      5.4403159
O        4.4347616     -7.9260173      6.7224854
C        4.0402043     -8.6830805      7.8981736
X        3.3099962     -7.7653512      8.8804326
X        3.0410776     -5.4460348      9.1414305
X        3.2405678     -3.1170044      7.2403924
P       -0.1709183     -8.0556241      7.3574537
O       -1.0018728     -6.7352884      7.6796727
C       -1.8693904     -6.7262558      8.8191321
X       -2.5614506     -5.3907288      8.9525486
X       -2.4590376     -3.3275276      7.8137190
X       -1.4126378     -2.5206208      5.0086549
P       -5.7303197     -6.5314222      7.2065640
O       -6.7248232     -5.2992489      6.9781076
C       -8.1386060     -5.2208067      7.2953367
X       -8.7599568     -3.9143410      6.9194332
X       -8.2944866     -1.5865677      7.2898255
X       -5.9130354      0.1032395      7.9892693
P       -9.7743864     -4.6897106      3.2647715
O      -11.2005908     -4.0392639      2.8530263
C      -11.5180574     -2.6364085      2.9012186
X      -12.8248939     -2.4214618      2.1715334
X      -13.8315305     -3.3924261      0.2881737
X      -13.3966846     -6.0566382     -1.0982826
P      -15.2962637     -2.4362823      5.1641133
O      -16.3327009     -1.2450937      5.0627463
C      -17.2495061     -1.1986193      3.9619119
X      -18.2138213     -0.0559426      4.1906972
X      -19.2279559      0.8071830      6.0809455
X      -18.6022834      0.3028691      8.9790657
P      -16.3049042      2.7929525      2.3881054
O      -17.2812049      3.4717679      1.3121357
C      -16.9658445      3.6559055     -0.0697259
X      -16.2477208      2.4575246     -0.6280483
X      -16.9007607      0.5857543     -1.8711769
X      -19.1648270      0.1659150     -3.7555824
P      -14.3633232      4.2267748     -3.4792350
O      -14.1289708      3.2068914     -4.6754993
C      -14.9873547      3.1029006     -5.7995467
X      -15.1308495      4.4542269     -6.4971211
X      -14.7393571      6.6655909     -5.8348544
X      -13.1951404      8.0415865     -3.5933896
P      -12.2323781      4.2936958     -8.8943488
O      -11.5420620      5.7382039     -9.1709955
C      -10.9500646      5.9514072    -10.4640889
X      -10.4312006      7.3736881    -10.6744700
X      -10.8503727      9.5367905     -9.8467566
X      -11.9111137     10.4110886     -7.5408882
X      -12.2432548     12.5402460     -7.2351477
P       -6.8266194      6.7096503     -9.5870921
O       -6.3187801      7.7743293     -8.4948377
C       -6.8237503      7.7603867     -7.1696776
X       -6.6250976      6.4068505     -6.5289323
X       -5.8808710      4.2869188     -7.1902974
X       -4.4327309      3.8073643     -9.3429222
X       -2.8433661      2.3281822     -9.1668008
P       -3.3757165      7.2557896     -4.6553788
O       -3.5875210      7.0522991     -3.0888674
C       -3.4734965      8.1147886     -2.1228131
X       -3.6776566      7.5999270     -0.7157797
X       -4.7983291      5.7182429      0.1693721
X       -5.4936790      3.0662367     -1.0829062
P       -0.0402098      6.9691823      0.1384211
O        0.1237696      6.1663217      1.5169544
C       -0.7430628      6.1692407      2.6616511
X       -0.3891477      5.1485541      3.7308389
X        0.7989932      3.1621415      3.8461650
X        2.6781798      2.6359505      2.0790061
X        4.3944606      1.4869104      2.8229489
P        1.3860232      7.6709265      5.9548233
O        1.5191473      7.1872329      7.4663965
C        1.2557976      7.9764643      8.6274639
X        1.5405747      7.1109463      9.8488279
X        1.5218669      4.8064221     10.3205707
X        2.2684633      3.2744261      8.3385846
X        2.3325779      0.9119594      8.8977445
P        5.1786220      8.0584253     10.3667761
O        5.9010223      6.9930727     11.3520566
C        7.1898696      7.2857599     11.8792199
X        8.2638963      7.5668786     10.8158063
X        8.9150927      9.4242703      9.5429351
X        8.3587144     12.3799100      9.9594128
P       11.2516626      6.1094241     12.7338761
O       12.2588521      5.2495276     11.8079695
C       12.7588655      3.9596424     12.1548728
X       13.7727654      3.4731086     11.1760510
X       16.1078735      3.5227442     11.0059246
X       18.0578937      3.6196400     13.2649257
P       13.2739732     -0.2385205     11.4472782
O       14.0481266     -1.0348210     10.3284717
C       13.3296148     -1.8764285      9.4077422
X       14.3489350     -2.5079373      8.4838135
X       16.4045670     -1.9169217      7.5141217
X       18.2433353     -0.3261682      8.5330436
X       20.3163318     -0.4758432      7.2618370
   142
  Step:         1975 Total energy:    2017.5939252331584      Temperature:   0.58732873531759355     
O       -4.4570225     -4.1787637    -15.4996732
C       -3.3526729     -4.0702744    -14.6122940
X       -2.0302174     -4.5109924    -15.2151705
X       -1.4830179     -6.0792328    -16.8979794
X       -3.1224189     -6.7350122    -18.8142279
X       -1.8638869     -7.4156422    -20.7902130
P       -1.3140487     -1.3226359    -17.2331372
O       -0.2218291     -1.6256663    -18.3246316
C        1.1435407     -1.9199092    -18.1353279
X        1.7753503     -0.7353167    -17.3943382
X        1.1384393      1.4290911    -16.9146872
X       -1.4412122      1.8047716    -16.5685196
X       -1.9204044      4.1127136    -15.9008124
P        1.8010405     -2.1225252    -13.8953631
O        2.8443362     -1.3399396    -12.9198456
C        4.2416597     -1.6553385    -12.9454810
X        4.9972317     -1.1078843    -11.7283744
X        4.6139482      0.4773927    -10.0335979
X        2.2664767      1.1826439     -9.0865556
X        2.3435698      1.4598891     -6.6489888
P        4.3882654     -4.2083721     -9.5515907
O        4.8715132     -4.0316491     -8.0335195
C        6.2152377     -4.2311566     -7.5971693
X        6.3751682     -3.9736550     -6.1040572
X        5.8053864     -5.1731559     -4.1481901
X        5.7477077     -7.7775986     -4.2716377
X        6.1212907     -8.6788233     -2.0343346
P       10.2358265     -3.9907287     -5.9440971
O       10.7732967     -4.9420771     -4.7884114
C       12.0987662     -5.4465035     -4.8724709
X       12.6662731     -5.7723707     -3.5072325
X       12.1988609     -5.1698203     -1.2916132
X        9.6079496     -4.0996224     -0.0825964
P       11.8148090     -9.5081080     -3.4937669
O       11.7562025    -10.0063690     -1.9554745
C       10.7775725    -10.7982072     -1.2865799
X       11.1737549    -11.0434733      0.1431227
X       13.1587845    -10.9544910      1.4021062
X       15.0515009     -9.2177259      0.8164557
X       16.2836052     -8.5110118      2.7965032
P        8.9242413     -8.3434270      1.6249027
O        9.1293580     -8.1910523      3.2261487
C        9.0348695     -9.2537982      4.1678758
X        8.8171622     -8.7641377      5.5764754
X        9.0121305     -6.7725533      6.7698567
X        8.8585078     -4.3886939      5.6962237
X        8.4738269     -2.6983364      7.4618729
P        4.9807594     -8.6166811      5.3815872
O        4.4336305     -7.9550432      6.7365671
C        4.0412084     -8.6974490      7.9399545
X        3.3193462     -7.7678134      8.8679448
X        3.0402746     -5.4772226      9.1400821
X        3.2347450     -3.1366371      7.2506632
P       -0.1356454     -8.0294035      7.3198936
O       -0.9852287     -6.7432169      7.6876238
C       -1.8309012     -6.6517292      8.8659660
X       -2.5625700     -5.3541622      8.9143937
X       -2.3851942     -3.3215958      7.7859001
X       -1.4006004     -2.5103261      5.0189354
P       -5.7743403     -6.5321517      7.2152330
O       -6.6744002     -5.2438297      6.9134971
C       -8.0837534     -5.1678602      7.2875091
X       -8.7849153     -3.8588651      6.9191856
X       -8.3730167     -1.5684152      7.2720996
X       -5.9596368      0.0844465      7.9747181
P       -9.7302752     -4.7271467      3.2757591
O      -11.0998928     -4.0684967      2.8853201
C      -11.4541358     -2.6665724      2.9352035
X      -12.7791919     -2.4313350      2.1590201
X      -13.7972261     -3.3968919      0.3045675
X      -13.3979041     -6.0203705     -1.1219477
P      -15.2563827     -2.4579979      5.1602708
O      -16.3601982     -1.3127863      5.0694588
C      -17.2274189     -1.2018566      3.9468926
X      -18.1540643     -0.0393744      4.2124509
X      -19.2923957      0.7569683      6.0963942
X      -18.5853506      0.3287755      9.0094759
P      -16.3303360      2.8116353      2.3952963
O      -17.2880592      3.4860301      1.2924709
C      -16.9206674      3.7106644     -0.0560911
X      -16.2438836      2.4675439     -0.6867789
X      -16.8838481      0.5292604     -1.8226918
X      -19.2046720      0.1646864     -3.7481594
P      -14.3864892      4.2893730     -3.4644342
O      -14.1576054      3.2512622     -4.6690633
C      -15.0656542      3.0767990     -5.7664929
X      -15.1699649      4.4389567     -6.4201893
X      -14.8319442      6.6714796     -5.7536778
X      -13.1658274      8.0195584     -3.5810620
P      -12.2225887      4.2765028     -8.9198262
O      -11.5240681      5.6726373     -9.1728601
C      -10.9814870      5.9825862    -10.4835376
X      -10.4621686      7.4019050    -10.6727835
X      -10.8979075      9.5184777     -9.7819758
X      -11.9132809     10.4013592     -7.5483765
X      -12.1997186     12.5436340     -7.2566607
P       -6.8489417      6.7335460     -9.5530776
O       -6.3700244      7.8112917     -8.4943305
C       -6.9033793      7.7491105     -7.1778151
X       -6.6038844      6.4153819     -6.4781783
X       -5.8506808      4.3111874     -7.2250470
X       -4.4308009      3.7933931     -9.3662899
X       -2.8616318      2.3250734     -9.1995137
P       -3.3983188      7.2416821     -4.6598233
O       -3.5607073      7.0632927     -3.0807900
C       -3.4749737      8.1170263     -2.1189035
X       -3.7121898      7.5448458     -0.7254745
X       -4.8043601      5.6547472      0.1850325
X       -5.4767620      3.0617403     -1.0796195
P        0.0142853      6.9344672      0.1988756
O        0.1840045      6.0992672      1.5486141
C       -0.7498643      6.1375358      2.6359727
X       -0.3940302      5.1561809      3.7538002
X        0.7944773      3.1090306      3.8641138
X        2.6925280      2.6272416      2.1017095
X        4.3780667      1.4899732      2.8458083
P        1.4104851      7.7001403      5.9627522
O        1.5274309      7.1593366      7.4563587
C        1.2929997      7.9439622      8.6339481
X        1.4826145      7.0822274      9.8725743
X        1.5270318      4.7829119     10.3373246
X        2.2470328      3.3052028      8.3139395
X        2.3525249      0.9190449      8.9344047
P        5.1913162      8.0379161     10.3634468
O        5.9039128      7.0196533     11.3113119
C        7.1425211      7.2711431     11.9111892
X        8.2176214      7.5387571     10.8199001
X        8.7796704      9.4249525      9.5699849
X        8.3763458     12.3712896      9.9655960
P       11.2959603      6.0589094     12.7156445
O       12.3606607      5.2686095     11.8269204
C       12.7161373      3.9438872     12.1812893
X       13.7582979      3.4783653     11.1729955
X       16.1181949      3.5198136     10.9550051
X       18.0467999      3.6095022     13.2528832
P       13.2765389     -0.2309869     11.4580077
O       14.0292900     -1.0330932     10.3079735
C       13.3181209     -1.8689673      9.3635855
X       14.3232277     -2.4919297      8.4138438
X       16.3717662     -1.8710126      7.4927289
X       18.2260616     -0.3303952      8.5300248
X       20.3276170     -0.4673611      7.2505021
   142
  Step:         2000 Total energy:    2011.4513639429783      Temperature:   0.52495501569540248     
O       -4.4593193     -4.2124511    -15.4684961
C       -3.3516589     -4.0648315    -14.5534697
X       -2.0719133     -4.5468498    -15.2071151
X       -1.4909131     -6.0653851    -16.9042072
X       -3.1499582     -6.7290814    -18.8268700
X       -1.8455775     -7.4224253    -20.7801938
P       -1.3441289     -1.2910419    -17.1828192
O       -0.2874460     -1.6972528    -18.3509200
C        1.1328358     -1.9134876    -18.0971179
X        1.8356437     -0.7238009    -17.4120465
X        1.1492176      1.4384263    -16.9179588
X       -1.4400043      1.7965005    -16.5788715
X       -1.9205530      4.1112480    -15.8711296
P        1.8339667     -2.1338862    -13.8945759
O        2.8092915     -1.3627147    -12.9389672
C        4.2527788     -1.5665216    -12.9500934
X        4.9851409     -1.0789939    -11.7048974
X        4.6149878      0.4736892     -9.9900173
X        2.2495581      1.1949419     -9.1032293
X        2.3482217      1.4588131     -6.6249045
P        4.3871410     -4.2164696     -9.5372526
O        4.8273652     -4.0937925     -8.0069436
C        6.1855039     -4.2984467     -7.5820037
X        6.3709704     -4.0054026     -6.1124156
X        5.8019167     -5.1879254     -4.1705232
X        5.7274189     -7.7951450     -4.2551902
X        6.1425610     -8.7210362     -2.0562726
P       10.1974125     -3.9301503     -5.9391163
O       10.7593931     -4.9362269     -4.8425674
C       12.1158147     -5.4043296     -4.9056748
X       12.6774295     -5.7541003     -3.5155048
X       12.1807910     -5.1712384     -1.2971283
X        9.5983888     -4.0872600     -0.0848295
P       11.7998821     -9.5107406     -3.4514693
O       11.7413947     -9.9230676     -1.9197391
C       10.8551137    -10.8903307     -1.3387313
X       11.1697230    -11.0148882      0.1455857
X       13.1217891    -10.9435423      1.4469590
X       15.0328196     -9.2725105      0.8189160
X       16.2973230     -8.5070945      2.8006133
P        8.9081326     -8.3094204      1.6560403
O        9.1747009     -8.1524146      3.2093370
C        9.0564410     -9.2494058      4.1544037
X        8.8133399     -8.8034246      5.5887495
X        9.1069223     -6.7655247      6.7654770
X        8.9038855     -4.3701230      5.7153116
X        8.4777852     -2.7178708      7.4571578
P        4.9905241     -8.6128754      5.3795828
O        4.4072246     -7.9719975      6.7007011
C        4.0460746     -8.6930243      7.8784492
X        3.3504387     -7.7884731      8.9013713
X        3.0340956     -5.4759726      9.1580813
X        3.2307294     -3.1521791      7.2574295
P       -0.1208438     -8.0102685      7.2812869
O       -1.0166344     -6.7634904      7.6859531
C       -1.7656583     -6.6529757      8.9102596
X       -2.5339354     -5.3375572      8.9029237
X       -2.3689443     -3.2385619      7.8047287
X       -1.3847542     -2.4991829      5.0178874
P       -5.8201922     -6.4831929      7.2188117
O       -6.6921724     -5.2090558      6.8308638
C       -8.0271144     -5.1596432      7.2853207
X       -8.7283440     -3.8376489      6.9113835
X       -8.4610225     -1.5827721      7.3112090
X       -6.0072798      0.0687009      7.9526141
P       -9.6669515     -4.7398310      3.3215800
O      -11.1046540     -4.1224203      2.8538081
C      -11.4074496     -2.7265636      2.9279227
X      -12.7130657     -2.4409805      2.1980471
X      -13.7664359     -3.3678206      0.3223351
X      -13.3970450     -5.9874970     -1.1438395
P      -15.1861442     -2.5079160      5.1580208
O      -16.3332731     -1.3763677      5.0643495
C      -17.1604346     -1.1266261      3.9245706
X      -18.1930817     -0.0474487      4.2167997
X      -19.2955438      0.7115868      6.1599928
X      -18.5734642      0.3562597      9.0296003
P      -16.3662690      2.8292088      2.3949783
O      -17.2882826      3.4782685      1.2561012
C      -16.8991955      3.7191122     -0.0820228
X      -16.2447147      2.4527823     -0.6667783
X      -16.9491535      0.5992762     -1.8405204
X      -19.2361668      0.1585577     -3.7307431
P      -14.4144853      4.3137051     -3.4615928
O      -14.1335583      3.2889500     -4.6284752
C      -15.0345108      3.1402072     -5.7398932
X      -15.2382724      4.4676925     -6.4125232
X      -14.9478660      6.6865041     -5.6978846
X      -13.1420404      7.9991317     -3.5683264
P      -12.2182765      4.2439658     -8.9274398
O      -11.5265566      5.6495831     -9.2232680
C      -11.0708613      5.9958586    -10.5410780
X      -10.4660394      7.3779886    -10.6251813
X      -10.9088821      9.5910034     -9.8375803
X      -11.9282690     10.3787546     -7.5298026
X      -12.1566417     12.5599484     -7.2847521
P       -6.8740866      6.7538191     -9.5482491
O       -6.4403581      7.8189143     -8.4397387
C       -6.8988304      7.7713537     -7.0967785
X       -6.6188090      6.3945332     -6.4925135
X       -5.8161614      4.3015362     -7.2152307
X       -4.4477531      3.8056586     -9.4091744
X       -2.8551588      2.2933896     -9.2251694
P       -3.4047495      7.2617625     -4.6553306
O       -3.5267178      7.0199440     -3.0792953
C       -3.5105933      8.0663901     -2.1141178
X       -3.6767522      7.5356229     -0.7083952
X       -4.8684495      5.7246284      0.2051850
X       -5.4630182      3.0461012     -1.0831829
P        0.0485824      6.9038762      0.2561194
O        0.2147237      6.0074416      1.5708745
C       -0.7748569      6.0892185      2.5923866
X       -0.4302551      5.1680332      3.7280473
X        0.8277255      3.1949440      3.8578234
X        2.7000130      2.6185187      2.1328399
X        4.3817080      1.4733001      2.8729318
P        1.4381217      7.7171460      5.9813495
O        1.5640320      7.0964154      7.4525781
C        1.2414767      7.8687573      8.6294890
X        1.4933801      7.1095852      9.9114654
X        1.4706307      4.8142028     10.3191758
X        2.2387791      3.3064712      8.2938452
X        2.3700634      0.9477024      8.9603727
P        5.1516649      8.0311791     10.3334045
O        5.9275906      6.9813497     11.3127233
C        7.1920377      7.1991499     11.9588438
X        8.1937555      7.5013795     10.8662626
X        8.7103334      9.3880072      9.5695420
X        8.3904937     12.3678423      9.9742572
P       11.3184744      6.0435039     12.7215226
O       12.3859671      5.2746789     11.8549346
C       12.7832026      3.9339544     12.1692450
X       13.7677138      3.5094528     11.0935052
X       16.0675526      3.5049351     10.9986494
X       18.0337342      3.6029160     13.2438939
P       13.2561171     -0.2505243     11.4691901
O       13.9957068     -1.0220601     10.2913044
C       13.3431712     -1.8313774      9.3304857
X       14.2931102     -2.4903769      8.3404527
X       16.3649769     -1.8492716      7.4221241
X       18.2170096     -0.3299901      8.5185842
X       20.3168167     -0.4626203      7.2543222
